 
data_iam
 
_audit_creation_method            'SHELXL-2018/3'
_shelx_SHELXL_version_number      '2018/3'
_chemical_name_systematic         ?
_chemical_name_common             ?
_chemical_melting_point           ?
_chemical_formula_moiety          ?
_chemical_formula_sum
 'C H4 N2 O' 
_chemical_formula_weight          60.06

loop_
 _atom_type_symbol
 _atom_type_description
 _atom_type_scat_dispersion_real
 _atom_type_scat_dispersion_imag
 _atom_type_scat_source
 'C'  'C'   0.0020   0.0010
 'International Tables Vol C Tables 4.2.6.8 and 6.1.1.4'
 'H'  'H'   0.0000   0.0000
 'International Tables Vol C Tables 4.2.6.8 and 6.1.1.4'
 'N'  'N'   0.0040   0.0020
 'International Tables Vol C Tables 4.2.6.8 and 6.1.1.4'
 'O'  'O'   0.0070   0.0040
 'International Tables Vol C Tables 4.2.6.8 and 6.1.1.4'
 
_space_group_crystal_system       tetragonal
_space_group_IT_number            113
_space_group_name_H-M_alt         'P -4 21 m'
_space_group_name_Hall            'P -4 2ab'
 
_shelx_space_group_comment
;
The symmetry employed for this shelxl refinement is uniquely defined
by the following loop, which should always be used as a source of
symmetry information in preference to the above space-group names.
They are only intended as comments.
;
 
loop_
 _space_group_symop_operation_xyz
 'x, y, z'
 'y, -x, -z'
 '-x, -y, z'
 '-y, x, -z'
 'x+1/2, -y+1/2, -z'
 '-y+1/2, -x+1/2, z'
 '-x+1/2, y+1/2, -z'
 'y+1/2, x+1/2, z'
 
_cell_length_a                    5.5780(6)
_cell_length_b                    5.5780(6)
_cell_length_c                    4.6860(7)
_cell_angle_alpha                 90
_cell_angle_beta                  90
_cell_angle_gamma                 90
_cell_volume                      145.80(4)
_cell_formula_units_Z             2
_cell_measurement_temperature     123(2)
_cell_measurement_reflns_used     ?
_cell_measurement_theta_min       ?
_cell_measurement_theta_max       ?
 
_exptl_crystal_description        ?
_exptl_crystal_colour             ?
_exptl_crystal_density_meas       ?
_exptl_crystal_density_method     ?
_exptl_crystal_density_diffrn     1.368          
_exptl_crystal_F_000              64
_exptl_transmission_factor_min    ?
_exptl_transmission_factor_max    ?
_exptl_crystal_size_max           0.230
_exptl_crystal_size_mid           0.130
_exptl_crystal_size_min           0.090
_exptl_absorpt_coefficient_mu     0.081
_shelx_estimated_absorpt_T_min    0.982
_shelx_estimated_absorpt_T_max    0.993
_exptl_absorpt_correction_type    ?
_exptl_absorpt_correction_T_min   ?
_exptl_absorpt_correction_T_max   ?
_exptl_absorpt_process_details    ?
_exptl_absorpt_special_details    ?
_diffrn_ambient_temperature       123(2)
_diffrn_radiation_wavelength      0.5996
_diffrn_radiation_type            ?
_diffrn_source                    ?
_diffrn_measurement_device_type   ?
_diffrn_measurement_method        ?
_diffrn_detector_area_resol_mean  ?
_diffrn_reflns_number             1022
_diffrn_reflns_av_unetI/netI      0.0148
_diffrn_reflns_av_R_equivalents   ?
_diffrn_reflns_limit_h_min        ?
_diffrn_reflns_limit_h_max        ?
_diffrn_reflns_limit_k_min        ?
_diffrn_reflns_limit_k_max        ?
_diffrn_reflns_limit_l_min        ?
_diffrn_reflns_limit_l_max        ?
_diffrn_reflns_theta_min          3.668
_diffrn_reflns_theta_max          57.401
_diffrn_reflns_theta_full         21.085
_diffrn_measured_fraction_theta_max   0.982
_diffrn_measured_fraction_theta_full  1.000
_diffrn_reflns_Laue_measured_fraction_max    0.982
_diffrn_reflns_Laue_measured_fraction_full   1.000
_diffrn_reflns_point_group_measured_fraction_max   0.562
_diffrn_reflns_point_group_measured_fraction_full  0.656
_reflns_number_total              1022
_reflns_number_gt                 803
_reflns_threshold_expression      'I > 2\s(I)'
_reflns_Friedel_coverage          0.000
_reflns_Friedel_fraction_max      0.000
_reflns_Friedel_fraction_full     0.000
 
_reflns_special_details
;
 Reflections were merged by SHELXL according to the crystal
 class for the calculation of statistics and refinement.
 
 _reflns_Friedel_fraction is defined as the number of unique
 Friedel pairs measured divided by the number that would be
 possible theoretically, ignoring centric projections and
 systematic absences.
;
 
_computing_data_collection        ?
_computing_cell_refinement        ?
_computing_data_reduction         ?
_computing_structure_solution     ?
_computing_structure_refinement 'SHELXL-2018/3 (Sheldrick, 2018)'
_computing_molecular_graphics     ?
_computing_publication_material   ?
_refine_special_details           ?
_refine_ls_structure_factor_coef  Fsqd
_refine_ls_matrix_type            full
_refine_ls_weighting_scheme       calc
_refine_ls_weighting_details
'w=1/[\s^2^(Fo^2^)] where P=(Fo^2^+2Fc^2^)/3'
_atom_sites_solution_primary      ?
_atom_sites_solution_secondary    ?
_atom_sites_solution_hydrogens    difmap
_refine_ls_hydrogen_treatment     refall
_refine_ls_extinction_method      none
_refine_ls_extinction_coef        .
_refine_ls_abs_structure_details
;
No quotients, so Flack parameter determined by classical intensity fit
;
_refine_ls_abs_structure_Flack    4.2(18)
_chemical_absolute_configuration  ?
_refine_ls_number_reflns          1022
_refine_ls_number_parameters      27
_refine_ls_number_restraints      0
_refine_ls_R_factor_all           0.0398
_refine_ls_R_factor_gt            0.0285
_refine_ls_wR_factor_ref          0.0546
_refine_ls_wR_factor_gt           0.0546
_refine_ls_goodness_of_fit_ref    5.851
_refine_ls_restrained_S_all       5.851
_refine_ls_shift/su_max           0.001
_refine_ls_shift/su_mean          0.000
 
loop_
 _atom_site_label
 _atom_site_type_symbol
 _atom_site_fract_x
 _atom_site_fract_y
 _atom_site_fract_z
 _atom_site_U_iso_or_equiv
 _atom_site_adp_type
 _atom_site_occupancy
 _atom_site_site_symmetry_order  
 _atom_site_calc_flag
 _atom_site_refinement_flags_posn
 _atom_site_refinement_flags_adp
 _atom_site_refinement_flags_occupancy
 _atom_site_disorder_assembly
 _atom_site_disorder_group
O O 0.000000 0.500000 0.59672(9) 0.01569(9) Uani 1 4 d S T P . .
N N 0.14465(7) 0.64465(7) 0.17896(10) 0.02325(11) Uani 1 2 d S T P . .
H1 H 0.2434(11) 0.7434(11) 0.2749(13) 0.058(4) Uani 1 2 d S T P . .
H2 H 0.1400(9) 0.6400(9) -0.008(2) 0.041(3) Uani 1 2 d S T P . .
C C 0.000000 0.500000 0.32823(12) 0.01244(8) Uani 1 4 d S T P . .
 
loop_
 _atom_site_aniso_label
 _atom_site_aniso_U_11
 _atom_site_aniso_U_22
 _atom_site_aniso_U_33
 _atom_site_aniso_U_23
 _atom_site_aniso_U_13
 _atom_site_aniso_U_12
O 0.02023(14) 0.02023(14) 0.00659(11) 0.000 0.000 0.0031(2)
N 0.03012(17) 0.03012(17) 0.00950(12) 0.00009(10) 0.00009(10) -0.0159(2)
H1 0.086(6) 0.086(6) 0.001(4) 0.024(3) 0.024(3) -0.040(8)
H2 0.021(3) 0.021(3) 0.081(7) 0.014(4) 0.014(4) -0.009(5)
C 0.01490(12) 0.01490(12) 0.00752(13) 0.000 0.000 0.0006(2)
 
_geom_special_details
;
 All esds (except the esd in the dihedral angle between two l.s. planes)
 are estimated using the full covariance matrix.  The cell esds are taken
 into account individually in the estimation of esds in distances, angles
 and torsion angles; correlations between esds in cell parameters are only
 used when they are defined by crystal symmetry.  An approximate (isotropic)
 treatment of cell esds is used for estimating esds involving l.s. planes.
;
 
loop_
 _geom_bond_atom_site_label_1
 _geom_bond_atom_site_label_2
 _geom_bond_distance
 _geom_bond_site_symmetry_2
 _geom_bond_publ_flag
O C 1.2582(7) . ?
N C 1.3384(6) . ?
N H1 0.900(9) . ?
N H2 0.878(11) . ?
 
loop_
 _geom_angle_atom_site_label_1
 _geom_angle_atom_site_label_2
 _geom_angle_atom_site_label_3
 _geom_angle
 _geom_angle_site_symmetry_1
 _geom_angle_site_symmetry_3
 _geom_angle_publ_flag
C N H1 118.5(4) . . ?
C N H2 119.1(5) . . ?
H1 N H2 122.4(7) . . ?
O C N 121.51(3) . . ?
O C N 121.51(3) . 3_565 ?
N C N 116.99(6) . 3_565 ?
 
_refine_diff_density_max    0.370
_refine_diff_density_min   -0.311
_refine_diff_density_rms    0.042

_shelx_res_file
;
TITL I                P -4 21 m
    iam.res
    created by SHELXL-2018/3 at 17:50:18 on 31-Jan-2021
CELL  0.59960    5.5780    5.5780    4.6860    90.000    90.000    90.000
ZERR        2    0.0006    0.0006    0.0007     0.000     0.000     0.000
LATT  -1
SYMM               Y ,            - X ,            - Z
SYMM             - X ,            - Y ,              Z
SYMM             - Y ,              X ,            - Z
SYMM     0.50000 + X ,    0.50000 - Y ,            - Z
SYMM     0.50000 - Y ,    0.50000 - X ,              Z
SYMM     0.50000 - X ,    0.50000 + Y ,            - Z
SYMM     0.50000 + Y ,    0.50000 + X ,              Z
SFAC  C  H  N  O
DISP  C     0.002     0.001       8.3
DISP  H     0.000     0.000       0.7
DISP  N     0.004     0.002      13.3
DISP  O     0.007     0.004      21.1
UNIT     2    8   4   2
LIST 4 ! automatically inserted. Change 6 to 4 for CHECKCIF!!
TEMP  -150
SIZE    0.0900    0.1300    0.2300
L.S. 10
FMAP 2
ACTA
BOND $H
WGHT    0.000000
FVAR       1.02290
O     4    0.000000    0.500000    0.596724    10.25000    0.02023    0.02023 =
         0.00659    0.00000    0.00000    0.00312
N     3    0.144653    0.644653    0.178963    10.50000    0.03012    0.03012 =
         0.00950    0.00009    0.00009   -0.01590
H1    2    0.243448    0.743448    0.274942    10.50000    0.08572    0.08572 =
         0.00141    0.02412    0.02412   -0.04024
H2    2    0.139983    0.639983   -0.008136    10.50000    0.02149    0.02149 =
         0.08084    0.01426    0.01426   -0.00919
C     1    0.000000    0.500000    0.328225    10.25000    0.01490    0.01490 =
         0.00752    0.00000    0.00000    0.00062
HKLF 4




REM  I                P -4 21 m
REM wR2 = 0.0546, GooF = S = 5.851, Restrained GooF = 5.851 for all data
REM R1 = 0.0285 for 803 Fo > 4sig(Fo) and 0.0398 for all 1022 data
REM 27 parameters refined using 0 restraints

END

WGHT      0.0537      0.0019

REM Highest difference peak  0.370,  deepest hole -0.311,  1-sigma level  0.042
Q1    1   0.0000  0.5000  0.4487  10.25000  0.05    0.31
Q2    1   0.0217  0.6011  0.6338  11.00000  0.05    0.17
Q3    1   0.0370  0.4630  0.7565  10.50000  0.05    0.17
Q4    1   0.0589  0.5589  0.6633  10.50000  0.05    0.16
Q5    1   0.0785  0.5785  0.2404  10.50000  0.05    0.16
Q6    1   0.1750  0.5527  0.2256  11.00000  0.05    0.12
Q7    1   0.0193  0.8482  0.4757  11.00000  0.05    0.11
Q8    1   0.0137  0.2837  0.6263  11.00000  0.05    0.10
Q9    1   0.0425  0.8431 -0.1631  11.00000  0.05    0.10
Q10   1   0.2113  0.5050  0.2377  11.00000  0.05    0.10
Q11   1   0.0000  1.0000 -0.0741  10.50000  0.05    0.09
Q12   1   0.1558  0.3442  0.1500  10.50000  0.05    0.09
Q13   1   0.0000  0.5000  0.8376  10.25000  0.05    0.09
Q14   1   0.0076  0.7965  0.5390  11.00000  0.05    0.09
Q15   1   0.2484  0.9505  0.4160  11.00000  0.05    0.08
Q16   1   0.3308  0.8308  0.1027  10.50000  0.05    0.08
Q17   1   0.0433  1.0167  0.2548  11.00000  0.05    0.08
Q18   1   0.2269  0.7269  0.2089  10.50000  0.05    0.08
Q19   1   0.0000  1.0000  0.3182  10.50000  0.05    0.08
Q20   1   0.0119  0.9440  0.2646  11.00000  0.05    0.08
;
_shelx_res_checksum   33828

_shelx_hkl_file
;
   0   0   1   13.43    0.05
   0   0   2  134.84    0.83
   0   0   3   13.63    0.08
   0   0   4   29.83    0.18
   0   0   5   49.07    0.36
   0   0   6   15.80    0.19
   0   0   7    0.27    0.03
   0   0   8   14.75    0.25
   0   0   9    3.66    0.10
   0   0  10    2.90    0.09
   0   0  11    0.07    0.26
   0   0  12    3.81    0.11
   0   0  13    0.18    0.02
   1   0   1  149.93    0.18
   1   0   2  153.21    0.27
   1   0   3   87.74    0.19
   1   0   4    2.22    0.03
   1   0   5   19.08    0.10
   1   0   6    0.53    0.03
   1   0   7   43.28    0.34
   1   0   8    6.15    0.07
   1   0   9   -0.01    0.32
   1   0  10    0.19    0.01
   1   0  11    1.43    0.04
   1   0  12    1.26    0.04
   1   0  13    0.00    0.31
   1   1   0 1008.37    1.92
   1   1   1  283.48    0.51
   1   1   2   52.93    0.12
   1   1   3   11.61    0.06
   1   1   4   43.49    0.18
   1   1   5   17.01    0.11
   1   1   6    2.97    0.03
   1   1   7    5.70    0.08
   1   1   8    4.50    0.07
   1   1   9    1.31    0.05
   1   1  10    3.26    0.07
   1   1  11    1.65    0.05
   1   1  12    2.47    0.06
   1   1  13    0.23    0.02
   2   0   0  155.94    0.30
   2   0   1  197.72    0.26
   2   0   2    8.30    0.03
   2   0   3   49.67    0.13
   2   0   4   20.15    0.09
   2   0   5    0.56    0.03
   2   0   6    1.47    0.02
   2   0   7    0.27    0.01
   2   0   8    0.05    0.20
   2   0   9    0.36    0.02
   2   0  10    1.08    0.04
   2   0  11    4.34    0.07
   2   0  12    1.07    0.04
   2   0  13   -0.03    0.30
   2   1   0  226.92    0.28
   2   1   1   49.58    0.08
   2   1   2   30.24    0.07
   2   1   3   68.66    0.16
   2   1   4   45.35    0.14
   2   1   5   13.59    0.07
   2   1   6   13.93    0.09
   2   1   7   10.80    0.09
   2   1   8   14.94    0.13
   2   1   9    3.31    0.05
   2   1  10    1.20    0.03
   2   1  11    1.91    0.04
   2   1  12    0.42    0.02
   2   1  13    0.21    0.01
   2   2   0  227.40    0.42
   2   2   1  199.86    0.39
   2   2   2   54.79    0.16
   2   2   3   27.54    0.12
   2   2   4   43.47    0.21
   2   2   5    9.79    0.08
   2   2   6    2.76    0.05
   2   2   7   10.10    0.12
   2   2   8    1.85    0.05
   2   2   9    1.67    0.05
   2   2  10    3.67    0.07
   2   2  11    2.78    0.06
   2   2  12    1.75    0.05
   3   0   1   93.42    0.17
   3   0   2   17.83    0.06
   3   0   3   11.62    0.05
   3   0   4  104.96    0.38
   3   0   5    0.37    0.02
   3   0   6   10.89    0.09
   3   0   7    0.50    0.02
   3   0   8   15.59    0.16
   3   0   9    4.27    0.06
   3   0  10    4.84    0.07
   3   0  11    0.41    0.02
   3   0  12    0.04    0.17
   3   1   0   29.12    0.07
   3   1   1  142.36    0.23
   3   1   2   14.88    0.05
   3   1   3   66.21    0.18
   3   1   4   14.52    0.07
   3   1   5    1.67    0.03
   3   1   6    5.24    0.05
   3   1   7    1.54    0.03
   3   1   8    0.47    0.02
   3   1   9    1.49    0.03
   3   1  10    1.08    0.03
   3   1  11    5.42    0.07
   3   1  12    0.59    0.03
   3   2   0   17.41    0.05
   3   2   1    5.13    0.03
   3   2   2   11.01    0.04
   3   2   3   25.65    0.09
   3   2   4   13.67    0.07
   3   2   5    7.64    0.05
   3   2   6    3.05    0.04
   3   2   7   16.15    0.13
   3   2   8    7.06    0.07
   3   2   9    0.68    0.03
   3   2  10    0.12    0.02
   3   2  11    0.95    0.03
   3   2  12    0.41    0.02
   3   3   0  219.52    0.62
   3   3   1    8.13    0.05
   3   3   2    7.96    0.06
   3   3   3    0.51    0.03
   3   3   4   15.79    0.12
   3   3   5   13.38    0.09
   3   3   6    5.59    0.07
   3   3   7    0.15    0.02
   3   3   8    5.63    0.09
   3   3   9    0.99    0.05
   3   3  10    1.50    0.05
   3   3  11    0.31    0.02
   3   3  12    1.98    0.05
   4   0   0    5.51    0.06
   4   0   1   97.62    0.24
   4   0   2    7.68    0.04
   4   0   3   71.92    0.25
   4   0   4    5.92    0.05
   4   0   5    2.61    0.04
   4   0   6    7.80    0.07
   4   0   7    0.16    0.01
   4   0   8    1.12    0.04
   4   0   9    2.14    0.05
   4   0  10    0.42    0.02
   4   0  11    6.01    0.09
   4   0  12    0.23    0.01
   4   1   0    7.14    0.04
   4   1   1   11.66    0.04
   4   1   2    2.75    0.03
   4   1   3   13.13    0.06
   4   1   4   43.02    0.18
   4   1   5    1.52    0.03
   4   1   6    5.75    0.05
   4   1   7    3.40    0.04
   4   1   8   10.12    0.10
   4   1   9    1.87    0.04
   4   1  10    1.81    0.04
   4   1  11    0.57    0.02
   4   1  12    0.03    0.28
   4   2   0   93.40    0.22
   4   2   1   25.72    0.08
   4   2   2    5.44    0.03
   4   2   3    4.23    0.03
   4   2   4   16.61    0.09
   4   2   5    5.31    0.03
   4   2   6    1.13    0.03
   4   2   7    1.70    0.03
   4   2   8    1.86    0.04
   4   2   9    0.39    0.02
   4   2  10    1.43    0.04
   4   2  11    1.20    0.03
   4   2  12    1.23    0.03
   4   3   0    3.26    0.03
   4   3   1   20.60    0.08
   4   3   2   18.74    0.08
   4   3   3   16.82    0.08
   4   3   4    0.31    0.02
   4   3   5   13.27    0.09
   4   3   6    1.15    0.03
   4   3   7   24.11    0.20
   4   3   8    3.04    0.04
   4   3   9    0.21    0.01
   4   3  10    0.25    0.01
   4   3  11    1.05    0.03
   4   3  12    0.74    0.03
   4   4   0   83.03    0.39
   4   4   1    4.76    0.05
   4   4   2    4.01    0.05
   4   4   3    0.16    0.01
   4   4   4    8.70    0.06
   4   4   5    5.58    0.07
   4   4   6    2.58    0.05
   4   4   7    0.12    0.02
   4   4   8    2.98    0.06
   4   4   9    0.45    0.02
   4   4  10    0.74    0.05
   4   4  11    0.35    0.02
   4   4  12    1.18    0.05
   5   0   1    0.10    0.01
   5   0   2    0.09    0.02
   5   0   3    8.53    0.06
   5   0   4   17.98    0.11
   5   0   5    1.89    0.04
   5   0   6    1.99    0.04
   5   0   7    6.36    0.08
   5   0   8    5.97    0.08
   5   0   9    0.55    0.03
   5   0  10    0.53    0.03
   5   0  11    0.45    0.02
   5   0  12    0.09    0.02
   5   1   0   42.29    0.15
   5   1   1   30.35    0.10
   5   1   2    8.27    0.05
   5   1   3   10.23    0.06
   5   1   4   15.48    0.09
   5   1   5    3.40    0.04
   5   1   6    0.77    0.03
   5   1   7    3.04    0.04
   5   1   8    0.84    0.03
   5   1   9    0.59    0.02
   5   1  10    1.57    0.04
   5   1  11    1.77    0.04
   5   1  12    0.82    0.03
   5   2   0   21.44    0.08
   5   2   1    7.21    0.04
   5   2   2    7.42    0.04
   5   2   3   21.37    0.10
   5   2   4    7.59    0.06
   5   2   5    9.18    0.07
   5   2   6    6.19    0.06
   5   2   7   10.25    0.10
   5   2   8    6.63    0.07
   5   2   9    1.36    0.03
   5   2  10    0.12    0.01
   5   2  11    1.26    0.03
   5   2  12    0.41    0.01
   5   3   0   43.20    0.16
   5   3   1   11.86    0.06
   5   3   2    2.26    0.03
   5   3   3    3.38    0.03
   5   3   4    8.52    0.06
   5   3   5    2.42    0.03
   5   3   6    0.57    0.02
   5   3   7    0.81    0.03
   5   3   8    1.07    0.03
   5   3   9    0.18    0.01
   5   3  10    0.86    0.03
   5   3  11    0.82    0.03
   5   3  12    0.71    0.03
   5   4   0    2.89    0.03
   5   4   1    0.48    0.02
   5   4   2    0.69    0.03
   5   4   3    5.74    0.03
   5   4   4    8.46    0.07
   5   4   5    2.60    0.04
   5   4   6    1.59    0.03
   5   4   7    5.10    0.06
   5   4   8    3.62    0.05
   5   4   9    0.46    0.02
   5   4  10    0.25    0.01
   5   4  11    0.48    0.02
   5   4  12    0.11    0.01
   5   5   0    6.77    0.07
   5   5   1   15.65    0.14
   5   5   2    5.01    0.04
   5   5   3   10.28    0.11
   5   5   4    6.97    0.09
   5   5   5    1.67    0.05
   5   5   6    0.82    0.04
   5   5   7    2.44    0.06
   5   5   8    0.25    0.02
   5   5   9    0.51    0.03
   5   5  10    0.82    0.05
   5   5  11    1.41    0.05
   6   0   0   61.56    0.41
   6   0   1    4.47    0.04
   6   0   2    2.56    0.03
   6   0   3    0.23    0.01
   6   0   4    7.77    0.07
   6   0   5    4.39    0.05
   6   0   6    1.96    0.04
   6   0   7    0.03    0.33
   6   0   8    2.36    0.05
   6   0   9    0.27    0.01
   6   0  10    0.74    0.04
   6   0  11    0.44    0.02
   6   0  12    1.02    0.03
   6   1   0    5.33    0.04
   6   1   1    5.69    0.04
   6   1   2    4.70    0.04
   6   1   3   10.53    0.07
   6   1   4    2.92    0.04
   6   1   5    6.46    0.06
   6   1   6    1.92    0.03
   6   1   7   10.92    0.11
   6   1   8    3.31    0.05
   6   1   9    0.38    0.02
   6   1  10   -0.01    0.28
   6   1  11    0.73    0.03
   6   1  12    0.32    0.01
   6   2   0   23.48    0.11
   6   2   1   13.77    0.08
   6   2   2    2.85    0.03
   6   2   3    6.21    0.04
   6   2   4    7.58    0.06
   6   2   5    1.55    0.03
   6   2   6    0.31    0.01
   6   2   7    1.30    0.03
   6   2   8    0.61    0.02
   6   2   9    0.25    0.01
   6   2  10    0.84    0.03
   6   2  11    1.18    0.03
   6   2  12    0.55    0.03
   6   3   0    0.04    0.23
   6   3   1    0.89    0.03
   6   3   2    0.92    0.03
   6   3   3    2.88    0.04
   6   3   4   15.21    0.11
   6   3   5    0.33    0.01
   6   3   6    1.76    0.04
   6   3   7    1.79    0.03
   6   3   8    4.34    0.06
   6   3   9    0.60    0.02
   6   3  10    0.78    0.03
   6   3  11    0.23    0.01
   6   4   0    2.47    0.03
   6   4   1   13.49    0.06
   6   4   2    2.63    0.03
   6   4   3   14.80    0.10
   6   4   4    3.45    0.04
   6   4   5    0.87    0.03
   6   4   6    1.31    0.03
   6   4   7    0.92    0.03
   6   4   8    0.16    0.01
   6   4   9    0.63    0.03
   6   4  10    0.40    0.02
   6   4  11    1.72    0.04
   6   5   0    4.17    0.04
   6   5   1    0.86    0.03
   6   5   2    1.57    0.03
   6   5   3    4.04    0.05
   6   5   4    9.33    0.08
   6   5   5    1.54    0.03
   6   5   6    2.10    0.04
   6   5   7    1.28    0.03
   6   5   8    3.14    0.05
   6   5   9    0.76    0.03
   6   5  10    0.49    0.02
   6   5  11    0.28    0.01
   6   6   0    8.51    0.10
   6   6   1    2.73    0.05
   6   6   2    0.43    0.03
   6   6   3    1.77    0.05
   6   6   4    1.94    0.05
   6   6   5    0.29    0.02
   6   6   6    0.04    0.23
   6   6   7    0.16    0.02
   6   6   8    0.23    0.02
   6   6   9    0.05    0.39
   6   6  10    0.20    0.02
   6   6  11    0.37    0.03
   7   0   1    8.53    0.07
   7   0   2    5.14    0.04
   7   0   3    5.27    0.05
   7   0   4    0.18    0.01
   7   0   5    6.29    0.07
   7   0   6    0.05    0.31
   7   0   7   11.98    0.14
   7   0   8    1.24    0.04
   7   0   9    0.05    0.32
   7   0  10    0.09    0.02
   7   0  11    0.48    0.03
   7   1   0   31.50    0.18
   7   1   1    3.19    0.04
   7   1   2    1.45    0.02
   7   1   3    0.61    0.02
   7   1   4    4.61    0.05
   7   1   5    2.06    0.03
   7   1   6    1.02    0.03
   7   1   7    0.08    0.02
   7   1   8    1.24    0.03
   7   1   9    0.10    0.01
   7   1  10    0.41    0.02
   7   1  11    0.36    0.01
   7   2   0    0.28    0.01
   7   2   1    0.01    0.17
   7   2   2    0.17    0.01
   7   2   3    2.72    0.04
   7   2   4    8.34    0.07
   7   2   5    0.87    0.03
   7   2   6    0.95    0.03
   7   2   7    2.60    0.04
   7   2   8    2.94    0.05
   7   2   9    0.28    0.01
   7   2  10    0.39    0.01
   7   2  11    0.22    0.01
   7   3   0    1.38    0.03
   7   3   1   10.72    0.08
   7   3   2    1.45    0.03
   7   3   3   14.03    0.11
   7   3   4    1.84    0.03
   7   3   5    0.65    0.03
   7   3   6    1.36    0.03
   7   3   7    0.32    0.01
   7   3   8    0.18    0.01
   7   3   9    0.58    0.03
   7   3  10    0.27    0.01
   7   3  11    1.63    0.03
   7   4   0    1.00    0.03
   7   4   1    1.35    0.03
   7   4   2    1.82    0.03
   7   4   3    1.70    0.03
   7   4   4   11.59    0.10
   7   4   5    0.34    0.01
   7   4   6    1.47    0.03
   7   4   7    0.45    0.02
   7   4   8    3.05    0.05
   7   4   9    0.55    0.03
   7   4  10    0.78    0.03
   7   4  11    0.14    0.01
   7   5   0    5.83    0.06
   7   5   1    3.18    0.04
   7   5   2    0.10    0.03
   7   5   3    2.86    0.04
   7   5   4    1.43    0.03
   7   5   5    0.08    0.02
   7   5   6    0.01    0.20
   7   5   7    0.01    0.29
   7   5   8    0.09    0.02
   7   5   9    0.04    0.28
   7   5  10    0.16    0.01
   7   5  11    0.48    0.02
   7   6   0    0.52    0.02
   7   6   1    2.21    0.04
   7   6   2    1.10    0.03
   7   6   3    2.15    0.04
   7   6   4    0.36    0.01
   7   6   5    1.87    0.04
   7   6   6    0.32    0.01
   7   6   7    3.56    0.05
   7   6   8    0.71    0.03
   7   6   9   -0.01    0.29
   7   6  10   -0.03    0.27
   7   7   1    1.29    0.05
   7   7   2    1.39    0.05
   7   7   3    0.00    0.39
   7   7   4    1.93    0.06
   7   7   5    1.11    0.05
   7   7   6    0.88    0.05
   7   7   7    0.29    0.02
   7   7   8    0.70    0.04
   7   7   9    0.17    0.02
   7   7  10    0.21    0.02
   8   0   0   17.21    0.14
   8   0   1    2.28    0.04
   8   0   2    0.82    0.03
   8   0   3    0.80    0.03
   8   0   4    2.74    0.05
   8   0   5    0.90    0.03
   8   0   6    0.51    0.02
   8   0   7    0.06    0.33
   8   0   8    0.66    0.03
   8   0   9    0.01    0.33
   8   0  10    0.25    0.01
   8   0  11    0.29    0.01
   8   1   0    1.50    0.03
   8   1   1    0.97    0.03
   8   1   2    0.62    0.02
   8   1   3    3.18    0.04
   8   1   4    2.92    0.04
   8   1   5    1.98    0.04
   8   1   6    0.78    0.03
   8   1   7    3.53    0.05
   8   1   8    1.66    0.04
   8   1   9    0.22    0.01
   8   1  10    0.02    0.28
   8   1  11    0.28    0.01
   8   2   0    4.68    0.05
   8   2   1    6.56    0.06
   8   2   2    1.56    0.03
   8   2   3    5.14    0.05
   8   2   4    3.07    0.04
   8   2   5    0.56    0.02
   8   2   6    0.26    0.01
   8   2   7    0.83    0.03
   8   2   8    0.12    0.01
   8   2   9    0.19    0.01
   8   2  10    0.39    0.02
   8   2  11    0.79    0.03
   8   3   0    1.13    0.03
   8   3   1    0.39    0.01
   8   3   2    0.87    0.03
   8   3   3    1.84    0.03
   8   3   4    7.04    0.07
   8   3   5    0.52    0.02
   8   3   6    1.10    0.03
   8   3   7    0.81    0.03
   8   3   8    2.09    0.04
   8   3   9    0.37    0.02
   8   3  10    0.40    0.02
   8   3  11    0.14    0.01
   8   4   0    4.16    0.05
   8   4   1    2.93    0.04
   8   4   2    0.03    0.26
   8   4   3    2.95    0.04
   8   4   4    1.13    0.03
   8   4   5    0.02    0.28
   8   4   6    0.09    0.03
   8   4   7    0.03    0.16
   8   4   8    0.05    0.02
   8   4   9    0.05    0.20
   8   4  10    0.17    0.01
   8   5   0    0.99    0.03
   8   5   1    1.35    0.03
   8   5   2    0.72    0.03
   8   5   3    2.21    0.04
   8   5   4    0.79    0.03
   8   5   5    1.34    0.03
   8   5   6    0.60    0.03
   8   5   7    2.36    0.04
   8   5   8    0.88    0.03
   8   5   9    0.09    0.02
   8   5  10    0.02    0.26
   8   6   0    8.42    0.09
   8   6   1    1.50    0.04
   8   6   2    1.20    0.03
   8   6   3    0.02    0.28
   8   6   4    1.98    0.04
   8   6   5    1.02    0.03
   8   6   6    0.59    0.03
   8   6   7    0.31    0.02
   8   6   8    0.56    0.02
   8   6   9    0.13    0.01
   8   6  10    0.24    0.02
   8   7   0    0.14    0.02
   8   7   1    0.56    0.03
   8   7   2    0.22    0.01
   8   7   3    0.78    0.03
   8   7   4    0.35    0.02
   8   7   5    0.65    0.03
   8   7   6    0.15    0.02
   8   7   7    1.26    0.04
   8   7   8    0.36    0.01
   8   7   9    0.00    0.27
   8   8   0    0.89    0.05
   8   8   1    0.87    0.04
   8   8   2    0.16    0.02
   8   8   3    0.96    0.05
   8   8   4    0.35    0.02
   8   8   5    0.01    0.41
   8   8   6    0.00    0.41
   8   8   7    0.03    0.41
   8   8   8    0.01    0.39
   9   0   1   -0.02    0.30
   9   0   2    0.09    0.02
   9   0   3    1.02    0.04
   9   0   4    3.88    0.06
   9   0   5    0.35    0.02
   9   0   6    0.45    0.02
   9   0   7    1.15    0.04
   9   0   8    1.34    0.04
   9   0   9    0.12    0.02
   9   0  10    0.19    0.01
   9   1   0    3.60    0.04
   9   1   1    3.63    0.04
   9   1   2    0.64    0.02
   9   1   3    3.13    0.04
   9   1   4    1.67    0.04
   9   1   5    0.26    0.01
   9   1   6    0.05    0.20
   9   1   7    0.32    0.01
   9   1   8    0.03    0.29
   9   1   9    0.07    0.01
   9   1  10    0.20    0.01
   9   2   0    1.40    0.03
   9   2   1    0.23    0.01
   9   2   2    0.41    0.01
   9   2   3    1.91    0.04
   9   2   4    3.13    0.04
   9   2   5    0.79    0.03
   9   2   6    0.83    0.03
   9   2   7    1.19    0.03
   9   2   8    1.25    0.04
   9   2   9    0.22    0.01
   9   2  10    0.11    0.01
   9   3   0    5.27    0.06
   9   3   1    1.63    0.03
   9   3   2    0.19    0.01
   9   3   3    1.14    0.03
   9   3   4    1.06    0.03
   9   3   5    0.12    0.01
   9   3   6    0.04    0.20
   9   3   7    0.03    0.20
   9   3   8    0.13    0.01
   9   3   9    0.02    0.28
   9   3  10    0.09    0.02
   9   4   0    0.42    0.02
   9   4   1    1.07    0.03
   9   4   2    0.48    0.02
   9   4   3    1.40    0.03
   9   4   4    0.54    0.02
   9   4   5    1.04    0.03
   9   4   6    0.29    0.01
   9   4   7    2.04    0.04
   9   4   8    0.62    0.03
   9   4   9    0.05    0.28
   9   4  10   -0.03    0.27
   9   5   0    6.29    0.07
   9   5   1    1.36    0.03
   9   5   2    0.98    0.03
   9   5   3    0.06    0.02
   9   5   4    1.60    0.04
   9   5   5    0.65    0.03
   9   5   6    0.38    0.01
   9   5   7    0.28    0.01
   9   5   8    0.38    0.02
   9   5   9    0.05    0.20
   9   6   0    0.18    0.01
   9   6   1    0.42    0.02
   9   6   2    0.15    0.01
   9   6   3    0.77    0.03
   9   6   4    0.50    0.02
   9   6   5    0.45    0.02
   9   6   6    0.16    0.01
   9   6   7    0.94    0.03
   9   6   8    0.40    0.01
   9   6   9    0.03    0.27
   9   7   0    0.81    0.03
   9   7   1    0.90    0.03
   9   7   2    0.05    0.20
   9   7   3    0.99    0.03
   9   7   4    0.30    0.01
   9   7   5   -0.04    0.29
   9   7   6    0.04    0.28
   9   7   7    0.03    0.28
   9   7   8    0.01    0.27
   9   8   0    0.58    0.02
   9   8   1    0.17    0.01
   9   8   2    0.40    0.02
   9   8   3    0.38    0.02
   9   8   4    1.42    0.04
   9   8   5    0.20    0.01
   9   8   6    0.29    0.01
   9   8   7    0.03    0.20
   9   8   8    0.37    0.02
   9   9   0    0.11    0.02
   9   9   1    0.66    0.04
   9   9   2    0.16    0.02
   9   9   3    0.79    0.04
   9   9   4    0.22    0.02
   9   9   5    0.06    0.40
   9   9   6    0.06    0.22
   9   9   7    0.07    0.38
  10   0   0    0.93    0.04
  10   0   1    2.26    0.04
  10   0   2    0.05    0.32
  10   0   3    3.13    0.05
  10   0   4    0.47    0.02
  10   0   5    0.07    0.33
  10   0   6    0.19    0.01
  10   0   7    0.00    0.33
  10   0   8    0.04    0.32
  10   0   9    0.10    0.02
  10   0  10    0.09    0.51
  10   1   0    0.10    0.01
  10   1   1    0.02    0.27
  10   1   2    0.20    0.01
  10   1   3    0.61    0.02
  10   1   4    2.71    0.04
  10   1   5    0.13    0.01
  10   1   6    0.33    0.01
  10   1   7    0.50    0.02
  10   1   8    0.89    0.03
  10   1   9    0.07    0.02
  10   1  10    0.18    0.02
  10   2   0    3.37    0.05
  10   2   1    1.07    0.03
  10   2   2    0.09    0.03
  10   2   3    0.85    0.03
  10   2   4    0.77    0.03
  10   2   5    0.06    0.02
  10   2   6    0.01    0.28
  10   2   7    0.02    0.28
  10   2   8    0.09    0.01
  10   2   9   -0.02    0.28
  10   2  10    0.04    0.37
  10   3   0    0.07    0.02
  10   3   1    0.87    0.03
  10   3   2    0.32    0.01
  10   3   3    0.85    0.03
  10   3   4    0.31    0.01
  10   3   5    0.78    0.03
  10   3   6    0.11    0.02
  10   3   7    1.55    0.04
  10   3   8    0.29    0.01
  10   3   9    0.05    0.27
  10   4   0    5.09    0.07
  10   4   1    0.61    0.02
  10   4   2    0.50    0.02
  10   4   3    0.03    0.28
  10   4   4    1.01    0.03
  10   4   5    0.40    0.02
  10   4   6    0.31    0.01
  10   4   7    0.08    0.02
  10   4   8    0.26    0.01
  10   4   9   -0.02    0.19
  10   5   0    0.06    0.02
  10   5   1    0.34    0.01
  10   5   2    0.10    0.02
  10   5   3    0.48    0.02
  10   5   4    0.38    0.02
  10   5   5    0.36    0.02
  10   5   6    0.09    0.02
  10   5   7    0.78    0.03
  10   5   8    0.27    0.01
  10   5   9    0.00    0.26
  10   6   0    0.59    0.02
  10   6   1    0.70    0.03
  10   6   2    0.03    0.20
  10   6   3    0.86    0.03
  10   6   4    0.23    0.01
  10   6   5   -0.01    0.29
  10   6   6    0.00    0.29
  10   6   7    0.03    0.20
  10   6   8    0.00    0.27
  10   7   0    0.37    0.02
  10   7   1    0.13    0.02
  10   7   2    0.32    0.01
  10   7   3    0.32    0.01
  10   7   4    1.28    0.04
  10   7   5    0.14    0.01
  10   7   6    0.19    0.01
  10   7   7    0.02    0.20
  10   7   8    0.34    0.01
  10   8   0    0.10    0.02
  10   8   1    0.51    0.02
  10   8   2    0.16    0.01
  10   8   3    0.74    0.03
  10   8   4    0.17    0.01
  10   8   5    0.03    0.20
  10   8   6    0.05    0.19
  10   8   7    0.05    0.01
  10   9   0    0.01    0.20
  10   9   1    0.04    0.28
  10   9   2    0.00    0.28
  10   9   3    0.07    0.02
  10   9   4    0.18    0.01
  10   9   5    0.02    0.28
  10   9   6    0.03    0.19
  10  10   0    0.59    0.04
  10  10   1    0.12    0.02
  10  10   2    0.07    0.40
  10  10   3   -0.02    0.40
  10  10   4    0.13    0.02
  10  10   5    0.06    0.38
  11   0   1    0.00    0.33
  11   0   2    0.08    0.02
  11   0   3    0.33    0.02
  11   0   4    1.55    0.04
  11   0   5    0.02    0.33
  11   0   6    0.14    0.02
  11   0   7    0.27    0.01
  11   0   8    0.50    0.03
  11   0   9   -0.01    0.31
  11   1   0    1.33    0.03
  11   1   1    0.92    0.03
  11   1   2    0.03    0.20
  11   1   3    0.96    0.03
  11   1   4    0.38    0.01
  11   1   5    0.02    0.28
  11   1   6    0.03    0.28
  11   1   7    0.04    0.28
  11   1   8    0.04    0.28
  11   1   9    0.05    0.26
  11   2   0    0.12    0.02
  11   2   1    0.24    0.01
  11   2   2    0.03    0.20
  11   2   3    0.51    0.02
  11   2   4    0.42    0.02
  11   2   5    0.37    0.01
  11   2   6    0.10    0.02
  11   2   7    0.74    0.03
  11   2   8    0.28    0.01
  11   2   9    0.04    0.26
  11   3   0    2.79    0.05
  11   3   1    0.44    0.02
  11   3   2    0.23    0.01
  11   3   3    0.09    0.02
  11   3   4    0.54    0.03
  11   3   5    0.18    0.01
  11   3   6    0.15    0.01
  11   3   7    0.03    0.28
  11   3   8    0.12    0.01
  11   4   0    0.02    0.28
  11   4   1    0.23    0.01
  11   4   2    0.04    0.17
  11   4   3    0.32    0.01
  11   4   4    0.27    0.01
  11   4   5    0.26    0.01
  11   4   6    0.05    0.20
  11   4   7    0.54    0.03
  11   4   8    0.15    0.01
  11   5   0    0.63    0.03
  11   5   1    0.52    0.02
  11   5   2    0.08    0.28
  11   5   3    0.52    0.02
  11   5   4    0.22    0.01
  11   5   5   -0.01    0.29
  11   5   6    0.04    0.28
  11   5   7    0.05    0.27
  11   5   8   -0.02    0.26
  11   6   0    0.25    0.01
  11   6   1    0.09    0.01
  11   6   2    0.21    0.01
  11   6   3    0.24    0.01
  11   6   4    0.88    0.03
  11   6   5    0.10    0.02
  11   6   6    0.16    0.01
  11   6   7    0.04    0.19
  11   7   0    0.12    0.02
  11   7   1    0.41    0.02
  11   7   2    0.09    0.01
  11   7   3    0.52    0.03
  11   7   4    0.13    0.01
  11   7   5    0.08    0.02
  11   7   6    0.06    0.27
  11   7   7    0.06    0.26
  11   8   0    0.00    0.28
  11   8   1   -0.01    0.29
  11   8   2   -0.02    0.29
  11   8   3    0.07    0.02
  11   8   4    0.16    0.01
  11   8   5    0.06    0.19
  11   8   6    0.03    0.26
  11   9   0    0.53    0.02
  11   9   1    0.10    0.01
  11   9   2    0.06    0.02
  11   9   3   -0.02    0.28
  11   9   4    0.13    0.02
  11   9   5    0.05    0.19
  11  10   0    0.05    0.28
  11  10   1    0.11    0.01
  11  10   2    0.06    0.02
  11  10   3    0.08    0.02
  12   0   0    1.00    0.04
  12   0   1    0.37    0.02
  12   0   2    0.00    0.22
  12   0   3    0.34    0.02
  12   0   4    0.20    0.01
  12   0   5    0.01    0.33
  12   0   6    0.04    0.32
  12   0   7    0.03    0.31
  12   0   8    0.05    0.31
  12   1   0    0.05    0.29
  12   1   1    0.08    0.02
  12   1   2    0.05    0.28
  12   1   3    0.28    0.01
  12   1   4    0.37    0.02
  12   1   5    0.16    0.01
  12   1   6    0.01    0.29
  12   1   7    0.36    0.02
  12   1   8    0.19    0.01
  12   2   0    1.17    0.03
  12   2   1    0.36    0.01
  12   2   2    0.12    0.02
  12   2   3    0.17    0.01
  12   2   4    0.29    0.01
  12   2   5    0.01    0.29
  12   2   6    0.00    0.28
  12   2   7    0.05    0.28
  12   2   8    0.06    0.01
  12   3   0    0.03    0.28
  12   3   1    0.09    0.01
  12   3   2    0.03    0.20
  12   3   3    0.18    0.01
  12   3   4    0.27    0.01
  12   3   5    0.14    0.02
  12   3   6    0.07    0.02
  12   3   7    0.29    0.01
  12   4   0    0.47    0.02
  12   4   1    0.29    0.01
  12   4   2    0.01    0.29
  12   4   3    0.32    0.01
  12   4   4    0.14    0.01
  12   4   5    0.00    0.28
  12   4   6   -0.01    0.28
  12   4   7    0.03    0.27
  12   5   0    0.12    0.02
  12   5   1    0.02    0.29
  12   5   2    0.10    0.02
  12   5   3    0.13    0.01
  12   5   4    0.55    0.02
  12   5   5    0.06    0.28
  12   5   6    0.08    0.28
  12   5   7    0.03    0.26
  12   6   0    0.15    0.01
  12   6   1    0.27    0.01
  12   6   2    0.05    0.21
  12   6   3    0.38    0.02
  12   6   4    0.08    0.02
  12   6   5    0.03    0.20
  12   6   6    0.01    0.27
  12   7   0   -0.01    0.28
  12   7   1    0.01    0.20
  12   7   2    0.00    0.28
  12   7   3    0.06    0.01
  12   7   4    0.13    0.01
  12   7   5    0.00    0.19
  12   8   0    0.43    0.02
  12   8   1    0.06    0.02
  12   8   2    0.09    0.02
  12   8   3    0.00    0.27
  12   8   4    0.10    0.02
  12   9   0    0.05    0.28
  12   9   1    0.06    0.02
  12   9   2    0.00    0.28
  12   9   3    0.07    0.02
  13   0   1    0.08    0.02
  13   0   2    0.03    0.21
  13   0   3    0.12    0.02
  13   0   4    0.11    0.01
  13   0   5    0.09    0.02
  13   0   6    0.00    0.32
  13   0   7    0.20    0.01
  13   1   0    0.67    0.03
  13   1   1    0.15    0.01
  13   1   2    0.00    0.29
  13   1   3    0.10    0.01
  13   1   4    0.13    0.01
  13   1   5    0.01    0.20
  13   1   6    0.01    0.19
  13   1   7    0.03    0.26
  13   2   0    0.01    0.28
  13   2   1    0.02    0.28
  13   2   2    0.00    0.28
  13   2   3    0.09    0.02
  13   2   4    0.16    0.01
  13   2   5    0.02    0.29
  13   2   6    0.05    0.27
  13   3   0    0.24    0.01
  13   3   1    0.19    0.01
  13   3   2    0.00    0.29
  13   3   3    0.22    0.01
  13   3   4    0.05    0.29
  13   3   5    0.01    0.28
  13   3   6    0.01    0.27
  13   4   0    0.02    0.20
  13   4   1    0.03    0.28
  13   4   2    0.04    0.28
  13   4   3    0.07    0.02
  13   4   4    0.30    0.01
  13   4   5   -0.03    0.32
  13   4   6    0.05    0.19
  13   5   0    0.13    0.01
  13   5   1    0.17    0.01
  13   5   2   -0.01    0.28
  13   5   3    0.18    0.01
  13   5   4    0.00    0.28
  13   5   5    0.04    0.26
  13   6   0    0.01    0.28
  13   6   1    0.01    0.28
  13   6   2    0.00    0.28
  13   6   3    0.06    0.27
  13   6   4    0.08    0.02
  13   6   5   -0.01    0.27
  13   7   0    0.26    0.01
  13   7   1    0.05    0.02
  13   7   2    0.02    0.16
  13   7   3    0.00    0.19
  13   7   4    0.04    0.27
  13   8   0    0.01    0.27
  13   8   1    0.06    0.02
  13   8   2    0.05    0.26
  14   0   0    0.33    0.02
  14   0   1    0.01    0.33
  14   0   2    0.01    0.21
  14   0   3   -0.01    0.33
  14   0   4    0.08    0.02
  14   0   5    0.00    0.31
  14   1   0    0.01    0.28
  14   1   1    0.03    0.28
  14   1   2   -0.05    0.29
  14   1   3    0.02    0.28
  14   1   4    0.06    0.28
  14   1   5    0.02    0.27
  14   2   0    0.17    0.01
  14   2   1    0.10    0.02
  14   2   2   -0.01    0.28
  14   2   3    0.09    0.02
  14   2   4    0.04    0.27
  14   2   5   -0.02    0.27
  14   3   0    0.01    0.28
  14   3   1    0.00    0.28
  14   3   2    0.02    0.28
  14   3   3    0.04    0.28
  14   3   4    0.11    0.02
  14   3   5   -0.02    0.26
  14   4   0    0.07    0.01
  14   4   1    0.07    0.02
  14   4   2   -0.01    0.28
  14   4   3    0.11    0.02
  14   4   4   -0.01    0.19
  14   5   0   -0.03    0.28
  14   5   1   -0.02    0.20
  14   5   2    0.00    0.27
  14   5   3    0.04    0.27
  14   6   0    0.17    0.01
  14   6   1   -0.01    0.19
  14   6   2    0.00    0.27
  15   0   1   -0.01    0.32
  15   0   2   -0.04    0.32
  15   0   3    0.04    0.30
  15   1   0    0.08    0.28
  15   1   1    0.03    0.19
  15   1   2    0.03    0.26
  15   1   3    0.03    0.19
  15   2   0    0.02    0.27
  15   2   1    0.00    0.27
  15   2   2   -0.01    0.27
  15   3   0    0.06    0.27
  15   3   1   -0.02    0.27
  15   3   2    0.01    0.26
  15   4   0    0.01    0.19
;
_shelx_hkl_checksum   51140

