TITL L-Ala_23K_P 21 21 21   R = 0.03
    iam.res
    created by SHELXL-2018/3 at 15:13:52 on 03-Jan-2022
CELL  0.71073    5.9279   12.2597    5.7939    90.000    90.000    90.000
ZERR        4    0.0010    0.0017    0.0009     0.000     0.000     0.000
LATT  -1
SYMM     0.50000 - X ,            - Y ,    0.50000 + Z
SYMM     0.50000 + X ,    0.50000 - Y ,            - Z
SYMM             - X ,    0.50000 + Y ,    0.50000 - Z
SFAC  C  H  N  O
UNIT    12   28   4   8
LIST 4! automatically inserted. Change 6 to 4 for CHECKCIF!!
TEMP  -250
ACTA
L.S. 100
FMAP 2
PLAN -20
ACTA
BOND $H
CONF
WGHT    0.000000
FVAR       1.37262
O1    4    0.727073    0.083734    0.624348    11.00000    0.00678    0.00706 =
         0.00696    0.00064   -0.00055    0.00218
O2    4    0.440893    0.184098    0.761272    11.00000    0.00797    0.00792 =
         0.00421   -0.00072    0.00098    0.00162
N1    3    0.647297    0.137425    0.182817    11.00000    0.00581    0.00651 =
         0.00463   -0.00022    0.00065    0.00014
H1    2    0.697953    0.064884    0.189158    11.00000    0.03054
H2    2    0.768687    0.182830    0.201077    11.00000    0.01696
H3    2    0.578994    0.145947    0.016468    11.00000    0.03004
C1    1    0.466188    0.161055    0.354871    11.00000    0.00556    0.00544 =
         0.00394   -0.00004    0.00001    0.00050
H4    2    0.423397    0.239916    0.343398    11.00000    0.00650
C2    1    0.259888    0.090727    0.303295    11.00000    0.00630    0.00946 =
         0.00661   -0.00047   -0.00060   -0.00125
H5    2    0.201821    0.108821    0.151635    11.00000    0.01640
H6    2    0.143946    0.107599    0.422957    11.00000    0.01327
H7    2    0.301570    0.009738    0.309207    11.00000    0.01830
C3    1    0.553993    0.140797    0.599941    11.00000    0.00562    0.00428 =
         0.00419    0.00007   -0.00041   -0.00044
HKLF 4




REM  L-Ala_23K_P 21 21 21   R = 0.03
REM wR2 = 0.0637, GooF = S = 2.251, Restrained GooF = 2.251 for all data
REM R1 = 0.0285 for 2393 Fo > 4sig(Fo) and 0.0304 for all 2519 data
REM 83 parameters refined using 0 restraints

END  
     
WGHT      0.0405      0.0165 

REM Highest difference peak  0.531,  deepest hole -0.307,  1-sigma level  0.059
Q1    1   0.4995  0.1613  0.6809  11.00000  0.05    0.53
Q2    1   0.6523  0.1251  0.6171  11.00000  0.05    0.44
Q3    1   0.3613  0.1226  0.3326  11.00000  0.05    0.37
Q4    1   0.5062  0.1470  0.4485  11.00000  0.05    0.36
Q5    1   0.6238  0.1422  0.0787  11.00000  0.05    0.34
Q6    1   0.7711  0.0887  0.7165  11.00000  0.05    0.32
Q7    1   0.7153  0.0899  0.5205  11.00000  0.05    0.31
Q8    1   0.4988  0.1586  0.8218  11.00000  0.05    0.29
Q9    1   0.5661  0.1443  0.2660  11.00000  0.05    0.27
Q10   1   0.3405  0.1822  0.7173  11.00000  0.05    0.26
Q11   1   0.4560  0.2044  0.3670  11.00000  0.05    0.26
Q12   1   0.6836  0.0953  0.1879  11.00000  0.05    0.25
Q13   1   0.3675  0.2159  0.7630  11.00000  0.05    0.24
Q14   1   0.7641  0.0578  0.5439  11.00000  0.05    0.24
Q15   1   0.3987  0.1479  0.7082  11.00000  0.05    0.24
Q16   1   0.7086  0.0445  0.5605  11.00000  0.05    0.23
Q17   1   0.2887  0.0454  0.2948  11.00000  0.05    0.22
Q18   1   0.1715  0.0885  0.2364  11.00000  0.05    0.21
Q19   1   0.2278  0.0982  0.2163  11.00000  0.05    0.19
Q20   1   0.1992  0.0919  0.3695  11.00000  0.05    0.19
