 
data_iam
 
_audit_creation_method            'SHELXL-2018/3'
_shelx_SHELXL_version_number      '2018/3'
_chemical_name_systematic         ?
_chemical_name_common             ?
_chemical_melting_point           ?
_chemical_formula_moiety          ?
_chemical_formula_sum
 'C3 H7 N O2' 
_chemical_formula_weight          89.10

loop_
 _atom_type_symbol
 _atom_type_description
 _atom_type_scat_dispersion_real
 _atom_type_scat_dispersion_imag
 _atom_type_scat_source
 'C'  'C'   0.0033   0.0016
 'International Tables Vol C Tables 4.2.6.8 and 6.1.1.4'
 'H'  'H'   0.0000   0.0000
 'International Tables Vol C Tables 4.2.6.8 and 6.1.1.4'
 'N'  'N'   0.0061   0.0033
 'International Tables Vol C Tables 4.2.6.8 and 6.1.1.4'
 'O'  'O'   0.0106   0.0060
 'International Tables Vol C Tables 4.2.6.8 and 6.1.1.4'
 
_space_group_crystal_system       orthorhombic
_space_group_IT_number            19
_space_group_name_H-M_alt         'P 21 21 21'
_space_group_name_Hall            'P 2ac 2ab'
 
_shelx_space_group_comment
;
The symmetry employed for this shelxl refinement is uniquely defined
by the following loop, which should always be used as a source of
symmetry information in preference to the above space-group names.
They are only intended as comments.
;
 
loop_
 _space_group_symop_operation_xyz
 'x, y, z'
 '-x+1/2, -y, z+1/2'
 'x+1/2, -y+1/2, -z'
 '-x, y+1/2, -z+1/2'
 
_cell_length_a                    5.9279(10)
_cell_length_b                    12.2597(17)
_cell_length_c                    5.7939(9)
_cell_angle_alpha                 90
_cell_angle_beta                  90
_cell_angle_gamma                 90
_cell_volume                      421.07(11)
_cell_formula_units_Z             4
_cell_measurement_temperature     23(2)
_cell_measurement_reflns_used     ?
_cell_measurement_theta_min       ?
_cell_measurement_theta_max       ?
 
_exptl_crystal_description        ?
_exptl_crystal_colour             ?
_exptl_crystal_density_meas       ?
_exptl_crystal_density_method     ?
_exptl_crystal_density_diffrn     1.405          
_exptl_crystal_F_000              192
_exptl_transmission_factor_min    ?
_exptl_transmission_factor_max    ?
_exptl_crystal_size_max           ?
_exptl_crystal_size_mid           ?
_exptl_crystal_size_min           ?
_exptl_absorpt_coefficient_mu     0.117
_shelx_estimated_absorpt_T_min    ?
_shelx_estimated_absorpt_T_max    ?
_exptl_absorpt_correction_type    ?
_exptl_absorpt_correction_T_min   ?
_exptl_absorpt_correction_T_max   ?
_exptl_absorpt_process_details    ?
_exptl_absorpt_special_details    ?
_diffrn_ambient_temperature       23(2)
_diffrn_radiation_wavelength      0.71073
_diffrn_radiation_type            MoK\a
_diffrn_source                    ?
_diffrn_measurement_device_type   ?
_diffrn_measurement_method        ?
_diffrn_detector_area_resol_mean  ?
_diffrn_reflns_number             2519
_diffrn_reflns_av_unetI/netI      0.0242
_diffrn_reflns_av_R_equivalents   ?
_diffrn_reflns_limit_h_min        ?
_diffrn_reflns_limit_h_max        ?
_diffrn_reflns_limit_k_min        ?
_diffrn_reflns_limit_k_max        ?
_diffrn_reflns_limit_l_min        ?
_diffrn_reflns_limit_l_max        ?
_diffrn_reflns_theta_min          3.323
_diffrn_reflns_theta_max          50.138
_diffrn_reflns_theta_full         25.242
_diffrn_measured_fraction_theta_max   0.993
_diffrn_measured_fraction_theta_full  0.994
_diffrn_reflns_Laue_measured_fraction_max    0.993
_diffrn_reflns_Laue_measured_fraction_full   0.994
_diffrn_reflns_point_group_measured_fraction_max   0.567
_diffrn_reflns_point_group_measured_fraction_full  0.618
_reflns_number_total              2519
_reflns_number_gt                 2393
_reflns_threshold_expression      'I > 2\s(I)'
_reflns_Friedel_coverage          0.000
_reflns_Friedel_fraction_max      0.000
_reflns_Friedel_fraction_full     0.000
 
_reflns_special_details
;
 Reflections were merged by SHELXL according to the crystal
 class for the calculation of statistics and refinement.
 
 _reflns_Friedel_fraction is defined as the number of unique
 Friedel pairs measured divided by the number that would be
 possible theoretically, ignoring centric projections and
 systematic absences.
;
 
_computing_data_collection        ?
_computing_cell_refinement        ?
_computing_data_reduction         ?
_computing_structure_solution     ?
_computing_structure_refinement 'SHELXL-2018/3 (Sheldrick, 2018)'
_computing_molecular_graphics     ?
_computing_publication_material   ?
_refine_special_details           ?
_refine_ls_structure_factor_coef  Fsqd
_refine_ls_matrix_type            full
_refine_ls_weighting_scheme       calc
_refine_ls_weighting_details
'w=1/[\s^2^(Fo^2^)] where P=(Fo^2^+2Fc^2^)/3'
_atom_sites_solution_primary      ?
_atom_sites_solution_secondary    ?
_atom_sites_solution_hydrogens    difmap
_refine_ls_hydrogen_treatment     refall
_refine_ls_extinction_method      none
_refine_ls_extinction_coef        .
_refine_ls_abs_structure_details
;
No quotients, so Flack parameter determined by classical intensity fit
;
_refine_ls_abs_structure_Flack    0.2(7)
_chemical_absolute_configuration  ?
_refine_ls_number_reflns          2519
_refine_ls_number_parameters      83
_refine_ls_number_restraints      0
_refine_ls_R_factor_all           0.0304
_refine_ls_R_factor_gt            0.0285
_refine_ls_wR_factor_ref          0.0637
_refine_ls_wR_factor_gt           0.0635
_refine_ls_goodness_of_fit_ref    2.251
_refine_ls_restrained_S_all       2.251
_refine_ls_shift/su_max           0.000
_refine_ls_shift/su_mean          0.000
 
loop_
 _atom_site_label
 _atom_site_type_symbol
 _atom_site_fract_x
 _atom_site_fract_y
 _atom_site_fract_z
 _atom_site_U_iso_or_equiv
 _atom_site_adp_type
 _atom_site_occupancy
 _atom_site_site_symmetry_order  
 _atom_site_calc_flag
 _atom_site_refinement_flags_posn
 _atom_site_refinement_flags_adp
 _atom_site_refinement_flags_occupancy
 _atom_site_disorder_assembly
 _atom_site_disorder_group
O1 O 0.72707(7) 0.08373(3) 0.62435(8) 0.00693(7) Uani 1 1 d . . . . .
O2 O 0.44089(7) 0.18410(3) 0.76127(8) 0.00670(6) Uani 1 1 d . . . . .
N1 N 0.64730(8) 0.13742(4) 0.18282(9) 0.00565(7) Uani 1 1 d . . . . .
H1 H 0.6980(19) 0.0649(9) 0.189(2) 0.031(3) Uiso 1 1 d . . . . .
H2 H 0.7687(17) 0.1828(8) 0.201(2) 0.017(3) Uiso 1 1 d . . . . .
H3 H 0.579(2) 0.1459(9) 0.016(2) 0.030(3) Uiso 1 1 d . . . . .
C1 C 0.46619(9) 0.16105(4) 0.35487(10) 0.00498(7) Uani 1 1 d . . . . .
H4 H 0.4234(15) 0.2399(7) 0.3434(19) 0.007(2) Uiso 1 1 d . . . . .
C2 C 0.25989(10) 0.09073(5) 0.30330(11) 0.00745(8) Uani 1 1 d . . . . .
H5 H 0.2018(18) 0.1088(8) 0.152(2) 0.016(3) Uiso 1 1 d . . . . .
H6 H 0.1439(17) 0.1076(8) 0.423(2) 0.013(3) Uiso 1 1 d . . . . .
H7 H 0.3016(16) 0.0097(8) 0.309(2) 0.018(3) Uiso 1 1 d . . . . .
C3 C 0.55399(9) 0.14080(4) 0.59994(9) 0.00469(7) Uani 1 1 d . . . . .
 
loop_
 _atom_site_aniso_label
 _atom_site_aniso_U_11
 _atom_site_aniso_U_22
 _atom_site_aniso_U_33
 _atom_site_aniso_U_23
 _atom_site_aniso_U_13
 _atom_site_aniso_U_12
O1 0.00678(13) 0.00706(13) 0.00696(16) 0.00064(12) -0.00055(12) 0.00218(11)
O2 0.00797(13) 0.00792(13) 0.00421(15) -0.00072(11) 0.00098(12) 0.00162(12)
N1 0.00581(14) 0.00651(14) 0.00463(16) -0.00022(12) 0.00065(13) 0.00014(12)
C1 0.00556(16) 0.00544(14) 0.00394(18) -0.00004(12) 0.00001(14) 0.00050(13)
C2 0.00630(17) 0.00946(17) 0.0066(2) -0.00047(15) -0.00060(15) -0.00125(15)
C3 0.00562(15) 0.00428(13) 0.00419(17) 0.00007(12) -0.00041(14) -0.00044(13)
 
_geom_special_details
;
 All esds (except the esd in the dihedral angle between two l.s. planes)
 are estimated using the full covariance matrix.  The cell esds are taken
 into account individually in the estimation of esds in distances, angles
 and torsion angles; correlations between esds in cell parameters are only
 used when they are defined by crystal symmetry.  An approximate (isotropic)
 treatment of cell esds is used for estimating esds involving l.s. planes.
;
 
loop_
 _geom_bond_atom_site_label_1
 _geom_bond_atom_site_label_2
 _geom_bond_distance
 _geom_bond_site_symmetry_2
 _geom_bond_publ_flag
O1 C3 1.2498(7) . ?
O2 C3 1.2669(7) . ?
N1 C1 1.4934(7) . ?
N1 H1 0.939(11) . ?
N1 H2 0.916(10) . ?
N1 H3 1.051(13) . ?
C1 C2 1.5259(8) . ?
C1 C3 1.5326(8) . ?
C1 H4 1.002(9) . ?
C2 H5 0.969(12) . ?
C2 H6 0.998(11) . ?
C2 H7 1.024(10) . ?
 
loop_
 _geom_angle_atom_site_label_1
 _geom_angle_atom_site_label_2
 _geom_angle_atom_site_label_3
 _geom_angle
 _geom_angle_site_symmetry_1
 _geom_angle_site_symmetry_3
 _geom_angle_publ_flag
C1 N1 H1 112.8(8) . . ?
C1 N1 H2 111.7(7) . . ?
H1 N1 H2 108.6(9) . . ?
C1 N1 H3 108.4(7) . . ?
H1 N1 H3 104.7(10) . . ?
H2 N1 H3 110.4(9) . . ?
N1 C1 C2 109.62(5) . . ?
N1 C1 C3 110.05(4) . . ?
C2 C1 C3 111.23(5) . . ?
N1 C1 H4 109.0(6) . . ?
C2 C1 H4 109.2(5) . . ?
C3 C1 H4 107.7(6) . . ?
C1 C2 H5 109.4(6) . . ?
C1 C2 H6 107.4(6) . . ?
H5 C2 H6 109.7(8) . . ?
C1 C2 H7 110.4(5) . . ?
H5 C2 H7 109.8(9) . . ?
H6 C2 H7 110.1(8) . . ?
O1 C3 O2 125.84(5) . . ?
O1 C3 C1 118.32(5) . . ?
O2 C3 C1 115.85(5) . . ?
 
loop_
 _geom_torsion_atom_site_label_1
 _geom_torsion_atom_site_label_2
 _geom_torsion_atom_site_label_3
 _geom_torsion_atom_site_label_4
 _geom_torsion
 _geom_torsion_site_symmetry_1
 _geom_torsion_site_symmetry_2
 _geom_torsion_site_symmetry_3
 _geom_torsion_site_symmetry_4
 _geom_torsion_publ_flag
N1 C1 C3 O1 -18.15(6) . . . . ?
C2 C1 C3 O1 103.54(6) . . . . ?
N1 C1 C3 O2 162.16(4) . . . . ?
C2 C1 C3 O2 -76.16(6) . . . . ?
 
_refine_diff_density_max    0.531
_refine_diff_density_min   -0.307
_refine_diff_density_rms    0.059

_shelx_res_file
;
TITL L-Ala_23K_P 21 21 21   R = 0.03
    iam.res
    created by SHELXL-2018/3 at 15:13:52 on 03-Jan-2022
CELL  0.71073    5.9279   12.2597    5.7939    90.000    90.000    90.000
ZERR        4    0.0010    0.0017    0.0009     0.000     0.000     0.000
LATT  -1
SYMM     0.50000 - X ,            - Y ,    0.50000 + Z
SYMM     0.50000 + X ,    0.50000 - Y ,            - Z
SYMM             - X ,    0.50000 + Y ,    0.50000 - Z
SFAC  C  H  N  O
UNIT    12   28   4   8
LIST 4! automatically inserted. Change 6 to 4 for CHECKCIF!!
TEMP  -250
ACTA
L.S. 100
FMAP 2
PLAN -20
ACTA
BOND $H
CONF
WGHT    0.000000
FVAR       1.37262
O1    4    0.727073    0.083734    0.624348    11.00000    0.00678    0.00706 =
         0.00696    0.00064   -0.00055    0.00218
O2    4    0.440893    0.184098    0.761272    11.00000    0.00797    0.00792 =
         0.00421   -0.00072    0.00098    0.00162
N1    3    0.647297    0.137425    0.182817    11.00000    0.00581    0.00651 =
         0.00463   -0.00022    0.00065    0.00014
H1    2    0.697953    0.064884    0.189158    11.00000    0.03054
H2    2    0.768687    0.182830    0.201077    11.00000    0.01696
H3    2    0.578994    0.145947    0.016468    11.00000    0.03004
C1    1    0.466188    0.161055    0.354871    11.00000    0.00556    0.00544 =
         0.00394   -0.00004    0.00001    0.00050
H4    2    0.423397    0.239916    0.343398    11.00000    0.00650
C2    1    0.259888    0.090727    0.303295    11.00000    0.00630    0.00946 =
         0.00661   -0.00047   -0.00060   -0.00125
H5    2    0.201821    0.108821    0.151635    11.00000    0.01640
H6    2    0.143946    0.107599    0.422957    11.00000    0.01327
H7    2    0.301570    0.009738    0.309207    11.00000    0.01830
C3    1    0.553993    0.140797    0.599941    11.00000    0.00562    0.00428 =
         0.00419    0.00007   -0.00041   -0.00044
HKLF 4




REM  L-Ala_23K_P 21 21 21   R = 0.03
REM wR2 = 0.0637, GooF = S = 2.251, Restrained GooF = 2.251 for all data
REM R1 = 0.0285 for 2393 Fo > 4sig(Fo) and 0.0304 for all 2519 data
REM 83 parameters refined using 0 restraints

END

WGHT      0.0405      0.0165

REM Highest difference peak  0.531,  deepest hole -0.307,  1-sigma level  0.059
Q1    1   0.4995  0.1613  0.6809  11.00000  0.05    0.53
Q2    1   0.6523  0.1251  0.6171  11.00000  0.05    0.44
Q3    1   0.3613  0.1226  0.3326  11.00000  0.05    0.37
Q4    1   0.5062  0.1470  0.4485  11.00000  0.05    0.36
Q5    1   0.6238  0.1422  0.0787  11.00000  0.05    0.34
Q6    1   0.7711  0.0887  0.7165  11.00000  0.05    0.32
Q7    1   0.7153  0.0899  0.5205  11.00000  0.05    0.31
Q8    1   0.4988  0.1586  0.8218  11.00000  0.05    0.29
Q9    1   0.5661  0.1443  0.2660  11.00000  0.05    0.27
Q10   1   0.3405  0.1822  0.7173  11.00000  0.05    0.26
Q11   1   0.4560  0.2044  0.3670  11.00000  0.05    0.26
Q12   1   0.6836  0.0953  0.1879  11.00000  0.05    0.25
Q13   1   0.3675  0.2159  0.7630  11.00000  0.05    0.24
Q14   1   0.7641  0.0578  0.5439  11.00000  0.05    0.24
Q15   1   0.3987  0.1479  0.7082  11.00000  0.05    0.24
Q16   1   0.7086  0.0445  0.5605  11.00000  0.05    0.23
Q17   1   0.2887  0.0454  0.2948  11.00000  0.05    0.22
Q18   1   0.1715  0.0885  0.2364  11.00000  0.05    0.21
Q19   1   0.2278  0.0982  0.2163  11.00000  0.05    0.19
Q20   1   0.1992  0.0919  0.3695  11.00000  0.05    0.19
;
_shelx_res_checksum   36934

_shelx_hkl_file
;
   0   2   0  334.87    3.20
   0   4   0 9448.91   80.99
   0   6   0  163.43    1.90
   0   8   0   82.64    1.31
   0  10   0    1.46    0.62
   0  12   0  424.14    4.85
   0  14   0  106.72    2.05
   0  16   0   46.00    1.56
   0  18   0  414.80    5.42
   0  20   0    0.40    0.62
   0  22   0  246.97    4.29
   0  24   0    0.42    0.69
   0  26   0   11.75    1.12
   0   1   1 1320.00   13.35
   0   2   1  217.82    2.22
   0   3   1 1291.14   11.66
   0   4   1  179.07    1.94
   0   5   1    0.42    0.30
   0   6   1  865.47    8.34
   0   7   1   67.29    1.11
   0   8   1   80.83    1.33
   0   9   1   58.46    1.21
   0  10   1  250.20    3.09
   0  11   1  121.57    2.02
   0  12   1  139.12    2.24
   0  13   1   34.32    1.26
   0  14   1   69.07    1.72
   0  15   1  165.76    2.84
   0  16   1    4.34   16.76
   0  17   1    2.06    0.63
   0  18   1  109.11    2.49
   0  19   1   29.44    1.63
   0  20   1   50.00    1.91
   0  21   1    4.90    0.77
   0  23   1    3.15    0.77
   0  24   1    0.30    0.70
   0  25   1    5.45    1.02
   0  26   1   36.05    2.25
   0   0   2 5179.34   60.69
   0   1   2  971.51   11.94
   0   2   2  330.85    3.78
   0   3   2  102.39    1.45
   0   4   2  311.97    3.26
   0   5   2 1032.85    9.70
   0   6   2  176.23    2.13
   0   7   2    9.87    0.62
   0   8   2  203.58    2.55
   0   9   2   43.16    1.09
   0  10   2   84.28    1.57
   0  11   2  152.66    2.30
   0  12   2   51.48    1.37
   0  13   2   39.16    1.27
   0  14   2   38.80    1.37
   0  15   2  330.40    4.35
   0  16   2    8.10    0.74
   0  17   2  111.27    2.52
   0  18   2   37.18    1.66
   0  19   2  218.44    3.81
   0  20   2    1.78    0.74
   0  21   2   83.71    2.48
   0  22   2   67.08    2.35
   0  23   2   32.82    1.87
   0  24   2    4.54    0.83
   0  25   2   40.93    2.30
   0  26   2    4.66    0.91
   0   1   3  153.04    3.18
   0   2   3  287.47    5.33
   0   3   3  374.32    4.47
   0   4   3 1346.60   14.16
   0   5   3  148.17    2.18
   0   6   3  496.26    5.18
   0   7   3   40.82    1.04
   0   8   3  112.33    1.81
   0   9   3  260.07    3.25
   0  10   3   72.19    1.52
   0  11   3  128.23    2.15
   0  12   3  216.68    3.09
   0  13   3  265.14    3.64
   0  14   3   50.69    1.56
   0  15   3  164.83    2.89
   0  16   3  282.05    4.12
   0  17   3   86.03    2.26
   0  18   3   49.20    1.81
   0  19   3    4.56    0.74
   0  20   3   80.97    2.44
   0  21   3    1.59    0.70
   0  22   3    2.11    0.74
   0  23   3   51.31    2.12
   0  24   3   23.17    1.66
   0  25   3    9.07    1.05
   0   0   4  382.05    7.11
   0   1   4   72.56    2.19
   0   2   4  169.56    3.74
   0   3   4   14.58    0.82
   0   4   4  418.12    5.17
   0   5   4    1.23    0.68
   0   6   4  129.25    2.24
   0   7   4   53.23    1.42
   0   8   4  117.50    1.96
   0   9   4   13.11    0.84
   0  10   4  164.61    2.52
   0  11   4  178.53    2.76
   0  12   4   71.07    1.75
   0  13   4   20.93    1.18
   0  14   4  259.51    3.80
   0  15   4   82.48    2.15
   0  16   4  172.51    3.17
   0  17   4   10.40    0.84
   0  18   4   17.55    1.35
   0  19   4    6.12    0.80
   0  20   4    3.34    0.75
   0  21   4    0.34    0.68
   0  22   4    7.93    0.90
   0  23   4    0.22    0.73
   0  24   4   48.42    2.07
   0  25   4    5.28    0.93
   0   1   5  430.21    8.23
   0   2   5  250.13    5.38
   0   3   5   89.67    2.80
   0   4   5  708.95    8.35
   0   5   5  323.83    4.43
   0   6   5    1.41    0.75
   0   7   5   12.07    0.96
   0   8   5  264.62    3.97
   0   9   5  126.38    2.60
   0  10   5   14.49    1.00
   0  11   5   37.80    1.42
   0  12   5    2.71    0.60
   0  13   5  144.28    2.74
   0  14   5    6.41    0.74
   0  15   5   25.69    1.44
   0  16   5   24.20    1.45
   0  17   5  140.34    3.02
   0  18   5    4.25    0.76
   0  19   5   24.82    1.63
   0  20   5    0.54    0.73
   0  21   5   35.78    1.89
   0  22   5   10.01    0.96
   0  23   5   22.82    1.75
   0  24   5    0.47    0.69
   0   0   6    1.43    1.14
   0   1   6  170.82    4.46
   0   2   6   29.52    1.87
   0   3   6    2.71    1.18
   0   4   6   29.13    1.98
   0   5   6  157.17    2.86
   0   6   6   20.36    1.19
   0   7   6  258.83    4.09
   0   8   6   54.67    1.80
   0   9   6   26.15    1.41
   0  10   6   28.44    1.50
   0  11   6  213.56    3.46
   0  12   6   11.50    1.01
   0  13   6    8.71    0.88
   0  14   6   21.30    1.34
   0  15   6    0.17    0.62
   0  16   6   75.68    2.33
   0  17   6   53.06    2.02
   0  18   6   14.21    1.25
   0  19   6   80.56    2.53
   0  20   6    3.35    0.78
   0  21   6   38.81    1.98
   0  22   6   19.28    1.41
   0  23   6   30.98    1.81
   0   1   7  107.10    3.74
   0   2   7  986.15   17.72
   0   3   7    0.85    1.40
   0   4   7   21.47    2.00
   0   5   7   43.88    2.61
   0   6   7   78.66    2.22
   0   7   7   85.00    2.33
   0   8   7    3.55    0.79
   0   9   7    9.00    0.94
   0  10   7   16.80    1.47
   0  11   7   57.21    2.16
   0  12   7   10.64    1.17
   0  13   7   21.21    1.45
   0  14   7    2.69    0.70
   0  16   7  148.86    3.31
   0  17   7    1.92    0.73
   0  18   7    4.20    0.80
   0  19   7   12.50    1.01
   0  20   7  246.41    4.46
   0  21   7    1.66    0.72
   0   0   8   44.60    2.75
   0   1   8    6.53    1.73
   0   2   8   15.87    2.09
   0   3   8   28.64    2.45
   0   4   8    3.15    1.73
   0   6   8   18.72    1.49
   0   7   8  108.66    2.85
   0   8   8  159.44    3.51
   0   9   8   22.35    1.58
   0  10   8   11.92    1.27
   0  11   8   73.06    2.56
   0  12   8   73.30    2.63
   0  13   8   58.58    2.45
   0  14   8   22.85    1.79
   0  15   8    1.01    0.70
   0  16   8    1.82    0.73
   0  17   8   11.97    1.00
   0  18   8    1.05    0.73
   0  19   8   16.81    1.40
   0  20   8   11.22    0.96
   0   1   9   15.53    2.12
   0   2   9   84.51    4.00
   0   3   9  115.43    4.61
   0   4   9   40.49    2.96
   0   5   9    3.01    1.75
   0   6   9    2.88    1.79
   0   7   9   84.78    2.78
   0   8   9  145.15    3.54
   0   9   9   30.02    1.95
   0  10   9   25.24    1.86
   0  11   9    4.09    0.96
   0  12   9   63.57    2.54
   0  13   9   53.11    2.44
   0  14   9    0.52    0.89
   0  15   9   86.20    2.99
   0  16   9   26.34    1.99
   0  17   9   28.29    1.80
   0  18   9   15.64    1.17
   0   0  10    8.76    2.24
   0   1  10    0.01    1.83
   0   2  10   37.72    3.16
   0   3  10   89.22    4.40
   0   4  10   51.64    3.54
   0   5  10   59.59    3.75
   0   6  10   75.83    4.24
   0   7  10   99.04    4.74
   0   8  10  109.70    3.28
   0   9  10   12.27    1.20
   0  10  10    3.39    0.95
   0  11  10   29.85    2.09
   0  12  10   24.46    1.69
   0  13  10   22.85    1.91
   0  14  10   79.40    2.96
   0  15  10   10.67    1.18
   0   1  11    0.88    2.22
   0   2  11    4.92    2.25
   0   3  11   12.38    2.70
   0   4  11    1.67    2.35
   0   5  11    1.63    2.35
   0   6  11   14.07    2.80
   0   7  11    5.64    2.46
   0   8  11   15.30    2.80
   0   9  11   14.58    1.40
   0  10  11    2.86    0.98
   0  11  11   15.21    1.53
   0  12  11   54.96    2.56
   0   0  12    4.52   16.76
   0   1  12   49.22    4.10
   0   2  12   36.82    3.58
   0   3  12  211.78    7.21
   0   4  12    0.77    2.58
   0   5  12   17.82    3.13
   0   6  12  101.65    5.02
   0   7  12  118.13    5.54
   1   1   0  458.35    4.31
   1   2   0 9999.99  105.89
   1   3   0  107.72    1.26
   1   4   0 3059.16   26.92
   1   5   0  616.72    5.99
   1   6   0  112.77    1.45
   1   7   0   35.09    0.80
   1   8   0  732.93    7.29
   1   9   0    5.94    0.62
   1  10   0   78.48    1.46
   1  11   0  176.58    2.47
   1  12   0   49.06    1.29
   1  13   0  104.48    1.97
   1  14   0    1.57    0.79
   1  15   0  157.31    2.69
   1  16   0   44.58    1.55
   1  17   0   53.84    1.75
   1  18   0    1.70    0.70
   1  19   0   61.47    2.00
   1  20   0   73.40    2.27
   1  21   0    2.61    0.78
   1  22   0    7.28    0.86
   1  23   0   12.77    1.10
   1  24   0   17.84    1.44
   1  26   0   13.34    1.16
   1   0   1  139.95    1.52
   1   1   1  243.44    2.47
   1   2   1  189.77    2.01
   1   3   1 1982.27   17.64
   1   4   1  286.21    2.99
   1   5   1  798.09    7.70
   1   6   1   39.89    0.80
   1   7   1  618.51    6.21
   1   8   1  427.57    4.52
   1   9   1  423.38    4.61
   1  10   1  239.17    3.05
   1  11   1   31.25    1.02
   1  12   1    0.65    0.66
   1  13   1  232.64    3.23
   1  14   1   53.91    1.51
   1  15   1  159.71    2.77
   1  16   1  112.61    2.35
   1  17   1   46.35    1.65
   1  18   1   43.35    1.69
   1  19   1   27.91    1.51
   1  20   1   10.62    0.88
   1  21   1    3.76    0.75
   1  22   1   63.37    2.20
   1  23   1   19.43    1.62
   1  24   1   38.16    1.96
   1  25   1   17.31    1.49
   1  26   1    3.65    0.88
   1   0   2 5660.20   65.86
   1   1   2  130.63    1.71
   1   2   2 1043.40   11.15
   1   3   2  353.79    3.69
   1   4   2 1939.85   17.55
   1   5   2   33.91    0.75
   1   6   2  400.08    4.21
   1   7   2  295.37    3.32
   1   8   2   18.68    0.79
   1   9   2  112.66    1.79
   1  10   2  108.41    1.82
   1  11   2  215.00    2.90
   1  12   2  210.37    2.96
   1  13   2  200.90    2.98
   1  14   2   99.73    2.07
   1  15   2   57.67    1.68
   1  16   2   50.36    1.72
   1  17   2  138.03    2.78
   1  18   2  200.69    3.51
   1  19   2   75.12    2.19
   1  20   2   17.69    1.28
   1  21   2   41.69    1.86
   1  22   2   66.68    2.32
   1  23   2   79.12    2.59
   1  24   2   19.41    1.45
   1  25   2    0.28    0.78
   1  26   2    8.19    1.01
   1   0   3   58.41    1.68
   1   1   3  551.52    9.53
   1   2   3  409.72    4.81
   1   3   3  167.22    2.33
   1   4   3  174.39    2.44
   1   5   3   41.99    0.96
   1   6   3  251.77    2.98
   1   7   3    9.44    0.69
   1   8   3  469.65    5.12
   1   9   3   52.89    1.28
   1  10   3  145.26    2.26
   1  11   3   30.38    1.09
   1  12   3   58.87    1.52
   1  13   3   61.62    1.65
   1  14   3  209.36    3.25
   1  15   3   61.05    1.79
   1  16   3   16.94    1.12
   1  17   3   45.62    1.72
   1  18   3   48.35    1.83
   1  19   3   49.62    1.92
   1  20   3   14.15    1.20
   1  21   3   42.99    1.91
   1  22   3   13.12    1.11
   1  23   3    5.00    0.83
   1  24   3   14.83    1.17
   1  25   3   32.65    2.11
   1   0   4  598.64   10.63
   1   1   4  474.06    8.62
   1   2   4   52.41    1.91
   1   3   4   42.68    1.17
   1   4   4  199.94    2.86
   1   5   4  152.57    2.45
   1   6   4  237.65    3.41
   1   7   4  152.62    2.24
   1   8   4   82.36    1.61
   1   9   4    3.97    0.70
   1  10   4   41.40    1.28
   1  11   4  113.67    2.14
   1  12   4  256.82    3.63
   1  13   4   49.46    1.56
   1  14   4   71.85    1.94
   1  15   4    5.43    0.72
   1  16   4   42.99    1.66
   1  17   4   51.21    1.85
   1  18   4  106.80    2.67
   1  19   4   74.39    2.28
   1  20   4   16.85    1.45
   1  21   4   19.69    1.43
   1  22   4   39.69    1.91
   1  23   4   27.49    1.75
   1  24   4    3.90    0.79
   1   0   5  518.76    9.67
   1   1   5  223.19    4.94
   1   2   5  845.41   14.81
   1   3   5  321.41    6.63
   1   4   5  197.10    3.07
   1   5   5   15.61    0.97
   1   6   5  418.86    5.49
   1   7   5  133.01    2.53
   1   8   5  126.40    2.51
   1   9   5  164.17    2.66
   1  10   5   17.36    1.05
   1  11   5   65.37    1.74
   1  12   5   45.72    1.57
   1  13   5   81.55    2.10
   1  14   5   73.29    2.04
   1  15   5   54.41    1.87
   1  16   5  143.33    2.98
   1  17   5   20.89    1.46
   1  18   5   12.69    1.18
   1  19   5   34.06    1.78
   1  20   5  117.90    2.99
   1  21   5   45.78    2.03
   1  22   5    3.15    0.78
   1  23   5    8.35    0.91
   1  24   5   31.79    1.82
   1   0   6    0.13    1.15
   1   1   6    1.63    1.13
   1   2   6   13.76    1.52
   1   3   6   22.65    1.80
   1   4   6   29.17    1.98
   1   5   6   24.23    1.22
   1   6   6   39.90    1.49
   1   7   6   14.18    1.13
   1   8   6   16.58    1.24
   1   9   6   20.19    1.40
   1  10   6    4.43    0.80
   1  11   6   17.93    1.24
   1  12   6   52.88    1.75
   1  13   6   13.75    1.10
   1  14   6   51.08    1.83
   1  15   6   20.07    1.48
   1  16   6    5.44    0.78
   1  17   6   39.24    1.83
   1  18   6   25.27    1.63
   1  19   6   21.52    1.57
   1  20   6   57.61    2.27
   1  21   6   17.15    1.41
   1  22   6   15.73    1.38
   1  23   6   21.95    1.61
   1   0   7  452.05    9.39
   1   1   7   48.96    2.64
   1   2   7  111.88    3.86
   1   3   7  148.51    4.54
   1   4   7  257.66    6.41
   1   5   7   55.76    1.90
   1   6   7  112.57    2.68
   1   7   7   17.35    1.40
   1   8   7  102.75    2.65
   1   9   7  122.86    2.94
   1  10   7   34.21    1.75
   1  11   7   39.83    1.66
   1  12   7    3.48    0.84
   1  13   7   77.22    2.28
   1  14   7   44.90    1.91
   1  15   7   58.94    2.14
   1  16   7   47.16    1.96
   1  17   7   37.40    1.85
   1  18   7   78.51    2.53
   1  19   7   12.31    1.12
   1  20   7   28.17    1.80
   1  21   7   16.98    1.21
   1   0   8   19.05    2.19
   1   1   8   64.45    3.26
   1   2   8   36.21    2.62
   1   3   8   58.58    3.12
   1   4   8   59.81    3.20
   1   5   8  186.53    5.67
   1   6   8   27.45    1.68
   1   7   8  166.66    3.57
   1   8   8    5.92    0.89
   1   9   8   93.47    2.77
   1  10   8   72.49    2.52
   1  11   8  174.29    3.87
   1  12   8   21.47    1.77
   1  13   8   51.66    2.31
   1  14   8    2.19    0.92
   1  15   8   84.44    2.52
   1  16   8   10.19    0.95
   1  17   8   48.94    2.15
   1  18   8    9.96    0.95
   1  19   8    4.14    0.80
   1  20   8    0.20    0.71
   1   0   9    0.07    1.69
   1   1   9    4.07    1.82
   1   2   9   94.04    4.14
   1   3   9    2.98    1.79
   1   4   9    5.94    2.07
   1   5   9   52.17    3.34
   1   6   9   18.34    2.37
   1   7   9   28.96    1.85
   1   8   9   15.23    1.35
   1   9   9   36.19    2.04
   1  10   9   53.97    2.39
   1  11   9   84.12    2.88
   1  12   9   16.32    1.50
   1  13   9   29.36    2.07
   1  14   9   14.46    1.50
   1  15   9   40.58    2.26
   1  16   9   78.35    2.89
   1  17   9   33.39    1.91
   1  18   9   21.11    1.63
   1   0  10    6.35    2.14
   1   1  10   46.95    3.42
   1   2  10    2.85    2.05
   1   3  10   36.78    3.13
   1   4  10   39.61    3.32
   1   5  10   59.66    3.81
   1   6  10   75.92    4.21
   1   7  10   57.84    3.84
   1   8  10   44.75    2.29
   1   9  10   13.47    1.48
   1  10  10  102.14    3.29
   1  11  10   29.74    2.09
   1  12  10   83.16    2.99
   1  13  10    0.42    0.93
   1  14  10   12.00    1.22
   1  15  10   19.22    1.61
   1   0  11    1.47    2.35
   1   1  11   21.91    2.94
   1   2  11   61.71    4.13
   1   3  11   42.71    3.56
   1   4  11   21.72    2.96
   1   5  11   11.21    2.64
   1   6  11    7.21    2.46
   1   7  11   15.71    2.88
   1   8  11   28.52    2.15
   1   9  11   42.92    2.39
   1  10  11   34.18    2.23
   1  11  11    6.58    1.08
   1  12  11    2.95    0.97
   1   0  12   32.62    3.51
   1   1  12  138.68    5.81
   1   2  12   15.14    3.17
   1   3  12    5.90    2.84
   1   4  12   53.01    4.04
   1   5  12  125.21    5.68
   1   6  12    5.21    2.78
   1   7  12   41.72    3.80
   2   0   0   76.41    0.98
   2   1   0   56.72    0.80
   2   2   0 3059.10   26.95
   2   3   0 1433.37   13.07
   2   4   0   65.32    0.97
   2   5   0  166.07    1.97
   2   6   0 3792.47   33.67
   2   7   0  535.28    5.48
   2   8   0    1.39    0.55
   2   9   0  428.14    4.71
   2  10   0  463.49    5.08
   2  11   0    4.40    0.66
   2  12   0   79.08    1.66
   2  13   0  306.08    3.90
   2  14   0   19.92    1.10
   2  15   0  127.47    2.42
   2  16   0   67.41    1.87
   2  17   0   65.02    1.91
   2  18   0   79.64    2.19
   2  19   0   68.81    2.12
   2  20   0    1.68    0.68
   2  21   0   14.09    1.17
   2  22   0   27.55    1.69
   2  23   0   20.34    1.60
   2  24   0   59.02    2.26
   2  25   0    7.51    1.05
   2  26   0    1.96    0.82
   2   0   1    2.98    0.29
   2   1   1  142.15    1.61
   2   2   1  505.52    4.97
   2   3   1  977.56    9.20
   2   4   1  287.56    3.04
   2   5   1  777.71    7.56
   2   6   1   41.76    0.88
   2   7   1  178.54    2.24
   2   8   1    8.82    0.66
   2   9   1  497.84    5.36
   2  10   1   15.86    0.84
   2  11   1    8.66    0.79
   2  12   1   74.16    1.62
   2  13   1  145.46    2.46
   2  14   1   81.52    1.87
   2  15   1   43.28    1.47
   2  16   1    6.49    0.72
   2  17   1   18.36    1.26
   2  18   1   18.14    1.32
   2  19   1   53.28    1.93
   2  20   1  130.59    2.98
   2  21   1   52.62    2.04
   2  22   1   42.52    1.95
   2  23   1    4.67    0.81
   2  24   1   74.98    2.44
   2  25   1   41.91    2.41
   2  26   1   55.53    2.65
   2   0   2    7.65    0.41
   2   1   2  562.42    5.56
   2   2   2 1976.28   17.89
   2   3   2  195.16    2.28
   2   4   2  162.33    1.99
   2   5   2   15.30    0.63
   2   6   2  532.33    5.49
   2   7   2  255.84    3.03
   2   8   2  262.59    3.20
   2   9   2  233.54    2.95
   2  10   2    4.83    0.67
   2  11   2  116.84    2.04
   2  12   2  104.45    1.98
   2  13   2  133.95    2.38
   2  14   2   61.64    1.66
   2  15   2   58.00    1.70
   2  16   2  133.48    2.66
   2  17   2    0.12    0.61
   2  18   2   19.71    1.34
   2  19   2    2.07    0.66
   2  20   2   58.04    2.05
   2  21   2   55.13    2.12
   2  22   2    6.50    0.86
   2  23   2    4.62    0.82
   2  24   2   15.89    1.39
   2  25   2   72.76    3.03
   2   0   3  240.76    2.79
   2   1   3  255.89    2.88
   2   2   3  699.31    6.94
   2   3   3  817.02    8.08
   2   4   3  120.03    1.71
   2   5   3  454.60    4.86
   2   6   3  165.91    2.24
   2   7   3  198.00    2.58
   2   8   3  218.11    2.82
   2   9   3  527.67    5.81
   2  10   3  468.45    5.33
   2  11   3   21.90    1.06
   2  12   3  154.02    2.58
   2  13   3   79.97    1.88
   2  14   3   87.84    2.07
   2  15   3   30.94    1.45
   2  16   3    5.08    0.72
   2  17   3   23.26    1.37
   2  18   3    3.84    0.70
   2  19   3   70.84    2.22
   2  20   3   18.01    1.22
   2  21   3   79.00    2.50
   2  22   3   14.22    1.31
   2  23   3    9.50    1.03
   2  24   3    0.07    0.72
   2  25   3   23.81    1.95
   2   0   4  103.50    2.79
   2   1   4  194.87    2.81
   2   2   4  239.11    3.33
   2   3   4  243.15    3.37
   2   4   4   23.70    1.04
   2   5   4  109.08    1.80
   2   6   4  197.27    2.65
   2   7   4  186.84    2.61
   2   8   4  212.38    2.91
   2   9   4   88.66    1.78
   2  10   4  252.18    3.43
   2  11   4   90.82    1.95
   2  12   4   23.12    1.20
   2  13   4    0.73    0.60
   2  14   4   21.32    1.29
   2  15   4   23.39    1.36
   2  16   4   45.94    1.67
   2  17   4   70.65    2.16
   2  18   4   46.27    1.90
   2  19   4   15.89    1.29
   2  20   4   48.59    2.00
   2  21   4   36.97    1.90
   2  22   4   30.61    1.89
   2  23   4   42.75    1.95
   2  24   4    6.09    0.85
   2   0   5  263.44    5.66
   2   1   5   61.93    2.38
   2   2   5  294.15    4.09
   2   3   5   57.67    1.54
   2   4   5  270.47    3.87
   2   5   5  116.22    2.27
   2   6   5   22.76    1.16
   2   7   5   25.81    1.28
   2   8   5  114.39    2.13
   2   9   5   47.77    1.47
   2  10   5  252.75    3.60
   2  11   5  110.01    2.30
   2  12   5   26.09    1.35
   2  13   5    4.12    0.68
   2  14   5  168.54    3.13
   2  15   5   23.16    1.39
   2  16   5    2.07    0.65
   2  17   5    9.72    0.88
   2  18   5   80.81    2.49
   2  19   5   20.27    1.53
   2  20   5    2.57    0.76
   2  21   5    1.73    0.74
   2  22   5   38.23    1.90
   2  23   5   29.99    1.86
   2   0   6  139.43    4.02
   2   1   6  171.34    4.57
   2   2   6    4.21    1.30
   2   3   6    4.12    1.05
   2   4   6   41.27    1.50
   2   5   6  179.76    3.20
   2   6   6    1.08    0.88
   2   7   6  140.67    2.85
   2   8   6    0.42    0.95
   2   9   6    8.97    0.88
   2  10   6   22.09    1.26
   2  11   6  190.51    3.26
   2  12   6   14.37    0.99
   2  13   6  113.65    2.58
   2  14   6   20.54    1.36
   2  15   6  103.53    2.62
   2  16   6   28.02    1.63
   2  17   6   85.56    2.49
   2  18   6   90.54    2.65
   2  19   6    4.28    0.80
   2  20   6    6.95    0.88
   2  21   6   25.07    1.75
   2  22   6   83.36    2.59
   2   0   7   13.53    1.80
   2   1   7   80.12    3.31
   2   2   7   22.91    2.05
   2   3   7   26.41    2.18
   2   4   7  237.71    4.87
   2   5   7  129.49    2.86
   2   6   7   53.48    1.93
   2   7   7  152.59    3.24
   2   8   7  150.23    3.23
   2   9   7    9.08    0.97
   2  10   7   17.31    1.45
   2  11   7  178.02    3.76
   2  12   7    3.97    0.70
   2  13   7   89.21    2.48
   2  14   7   73.41    2.28
   2  15   7   59.76    2.17
   2  16   7    7.82    0.88
   2  17   7   92.70    2.69
   2  18   7   18.05    1.39
   2  19   7   12.78    1.16
   2  20   7    1.79    0.74
   2  21   7   18.95    1.45
   2   0   8   98.63    4.01
   2   1   8  107.28    4.19
   2   2   8   43.00    2.89
   2   3   8   52.95    3.06
   2   4   8   29.06    2.52
   2   5   8  103.11    2.78
   2   6   8   85.82    2.63
   2   7   8   76.28    2.49
   2   8   8    0.56    0.75
   2   9   8   21.45    1.46
   2  10   8    2.56    0.89
   2  11   8   15.54    1.42
   2  12   8    0.03    0.79
   2  13   8   57.31    2.49
   2  14   8   18.19    1.48
   2  15   8   12.80    1.27
   2  16   8    5.93    0.86
   2  17   8   42.86    2.07
   2  18   8    3.49    0.79
   2  19   8   12.26    0.99
   2   0   9  138.07    5.05
   2   1   9   31.89    2.74
   2   2   9  199.49    6.26
   2   3   9    9.77    2.01
   2   4   9   88.97    4.19
   2   5   9   20.91    2.53
   2   6   9   90.93    2.86
   2   7   9   19.27    1.68
   2   8   9    6.12    0.98
   2   9   9   69.97    2.61
   2  10   9   25.76    1.87
   2  11   9   28.51    1.96
   2  12   9   31.67    2.06
   2  13   9   64.08    2.66
   2  14   9  131.87    3.62
   2  15   9    2.00    0.95
   2  16   9   28.33    1.84
   2  17   9    7.90    0.96
   2   0  10   90.64    4.46
   2   1  10  122.54    5.15
   2   2  10    5.22    2.15
   2   3  10   11.98    2.43
   2   4  10    8.54    2.29
   2   5  10   85.12    4.39
   2   6  10   30.96    3.04
   2   7  10   47.83    2.41
   2   8  10   55.44    2.55
   2   9  10   22.30    1.67
   2  10  10   61.10    2.65
   2  11  10   80.85    2.89
   2  12  10   88.14    3.07
   2  13  10   12.94    1.24
   2  14  10   31.18    2.10
   2  15  10    5.39    1.04
   2   0  11   22.97    3.05
   2   1  11   18.09    2.91
   2   2  11    6.04    2.49
   2   3  11   13.24    2.65
   2   4  11    4.15    2.57
   2   5  11    1.28    2.38
   2   6  11   24.88    3.05
   2   7  11    0.94    2.38
   2   8  11   10.32    1.19
   2   9  11    0.56    0.93
   2  10  11   11.49    1.43
   2  11  11    8.37    1.12
   2   0  12   85.12    4.83
   2   1  12   37.52    3.82
   2   2  12   11.34    2.96
   2   3  12   77.71    4.61
   2   4  12   20.40    3.24
   2   5  12    4.12    2.78
   2   6  12   53.51    4.03
   3   1   0   56.51    0.93
   3   3   0  126.07    1.61
   3   4   0  753.47    7.35
   3   5   0  380.05    4.04
   3   6   0   71.84    1.27
   3   7   0  442.88    4.75
   3   8   0  147.14    2.11
   3   9   0  196.34    2.62
   3  10   0   54.73    1.32
   3  11   0  458.03    5.22
   3  12   0   14.92    0.96
   3  13   0    4.99    0.81
   3  14   0    6.84    0.89
   3  15   0   43.79    1.55
   3  16   0   78.20    2.07
   3  17   0   77.07    2.12
   3  18   0    3.88    0.68
   3  19   0    5.36    0.75
   3  20   0   50.89    1.96
   3  21   0   55.34    2.09
   3  22   0    7.44    0.88
   3  23   0    0.11    0.72
   3  24   0   14.68    1.19
   3  25   0   53.88    2.60
   3   0   1  320.06    3.39
   3   1   1  672.30    6.64
   3   2   1  107.44    1.44
   3   3   1  791.29    7.74
   3   4   1  149.19    1.90
   3   5   1   44.27    0.96
   3   6   1  125.64    1.79
   3   7   1  290.07    3.38
   3   8   1   77.81    1.46
   3   9   1  696.18    7.32
   3  10   1   67.24    1.49
   3  11   1   97.63    1.88
   3  12   1   99.13    1.98
   3  13   1  163.16    2.76
   3  14   1   49.31    1.56
   3  15   1    3.62    0.68
   3  16   1   71.74    2.00
   3  17   1   55.00    1.84
   3  18   1   93.07    2.42
   3  19   1   35.94    1.68
   3  20   1    6.74    0.83
   3  21   1  123.30    2.98
   3  22   1  112.93    2.98
   3  23   1   28.18    1.74
   3  24   1   54.34    2.20
   3  25   1   14.21    1.40
   3   0   2    0.19    0.42
   3   1   2  327.45    3.57
   3   2   2  495.23    5.08
   3   3   2  486.12    5.05
   3   4   2  100.33    1.56
   3   5   2  573.72    5.94
   3   6   2 1162.48   11.39
   3   7   2   13.31    0.77
   3   8   2  162.14    2.31
   3   9   2  113.38    1.93
   3  10   2  462.59    5.25
   3  11   2   63.06    1.55
   3  12   2  193.92    2.95
   3  13   2   47.76    1.48
   3  14   2   12.10    1.07
   3  15   2   23.50    1.30
   3  16   2   66.88    1.93
   3  17   2   51.98    1.82
   3  18   2   16.48    1.30
   3  19   2   10.08    0.99
   3  20   2   21.07    1.53
   3  21   2    1.07    0.70
   3  22   2    5.12    0.83
   3  23   2   17.87    1.58
   3  24   2   50.22    2.14
   3  25   2    8.27    1.02
   3   0   3  334.13    3.73
   3   1   3  458.09    4.86
   3   2   3   31.69    0.92
   3   3   3  304.63    3.50
   3   4   3   22.98    0.87
   3   5   3  389.93    4.33
   3   6   3    6.18    0.69
   3   7   3  463.36    5.15
   3   8   3   78.47    1.59
   3   9   3   47.66    1.32
   3  10   3   21.06    1.03
   3  11   3  138.28    2.39
   3  12   3   73.17    1.77
   3  13   3   22.62    1.21
   3  14   3   16.52    1.08
   3  15   3   21.92    1.32
   3  16   3    3.73    0.71
   3  17   3   14.90    1.16
   3  18   3    0.36    0.62
   3  19   3   18.74    1.49
   3  20   3   11.14    0.94
   3  21   3    2.94    0.75
   3  22   3   11.65    0.99
   3  23   3   72.52    2.51
   3  24   3   15.49    1.32
   3   0   4   21.11    0.85
   3   1   4  206.46    2.68
   3   2   4   56.40    1.27
   3   3   4  145.92    2.15
   3   4   4   45.54    1.18
   3   5   4  492.86    5.45
   3   6   4  145.71    2.27
   3   7   4  108.45    1.95
   3   8   4   98.17    1.91
   3   9   4  122.75    2.21
   3  10   4   38.24    1.33
   3  11   4   52.86    1.60
   3  12   4   54.60    1.65
   3  13   4  190.68    3.18
   3  14   4   18.30    1.24
   3  15   4   68.46    2.03
   3  16   4   31.48    1.54
   3  17   4   58.62    2.03
   3  18   4   46.41    1.92
   3  19   4   30.74    1.71
   3  20   4   37.97    1.84
   3  21   4   46.89    2.04
   3  22   4   12.70    1.13
   3  23   4   18.31    1.57
   3  24   4    2.00    0.74
   3   0   5   90.99    1.77
   3   1   5   81.46    1.67
   3   2   5   64.61    1.52
   3   3   5  133.43    2.21
   3   4   5  130.51    2.21
   3   5   5  131.88    2.26
   3   6   5   80.15    1.74
   3   7   5  223.29    3.21
   3   8   5  340.95    4.35
   3   9   5    3.31    0.86
   3  10   5  243.26    3.62
   3  11   5   13.29    0.97
   3  12   5  224.95    3.57
   3  13   5   18.72    1.31
   3  14   5  116.47    2.66
   3  15   5   80.57    2.28
   3  16   5   18.24    1.41
   3  17   5    5.71    0.80
   3  18   5   11.67    0.96
   3  19   5   19.31    1.41
   3  20   5    5.15    0.83
   3  21   5    6.52    0.88
   3  22   5   27.56    1.81
   3  23   5    6.88    0.87
   3   1   6    6.89    0.93
   3   2   6   75.97    1.99
   3   3   6    8.79    1.02
   3   4   6   17.41    1.23
   3   5   6   38.30    1.56
   3   6   6   33.94    1.56
   3   7   6   71.67    2.09
   3   8   6   34.19    1.45
   3   9   6   59.04    1.77
   3  10   6   43.70    1.62
   3  11   6  123.64    2.64
   3  12   6    6.57    0.78
   3  13   6  102.96    2.56
   3  14   6   46.89    1.85
   3  15   6   13.09    1.06
   3  16   6   75.95    2.38
   3  17   6   43.67    1.94
   3  18   6   18.54    1.39
   3  19   6   39.73    1.97
   3  20   6  115.60    3.02
   3  21   6   10.52    0.96
   3  22   6    9.39    0.93
   3   0   7   10.78    1.83
   3   1   7    1.54    1.52
   3   2   7  275.79    6.80
   3   3   7   52.83    1.96
   3   4   7   17.56    1.43
   3   5   7   58.44    2.06
   3   6   7   21.88    1.55
   3   7   7   65.59    2.20
   3   8   7   20.31    1.56
   3   9   7  198.44    3.89
   3  10   7   92.25    2.39
   3  11   7   11.23    0.87
   3  12   7    4.35    0.73
   3  13   7   69.43    2.24
   3  14   7   89.38    2.52
   3  15   7   67.77    2.31
   3  16   7    5.07    0.82
   3  17   7    5.17    0.83
   3  18   7   14.27    1.16
   3  19   7   37.97    1.98
   3  20   7   16.71    1.37
   3  21   7    9.47    0.93
   3   0   8    3.88    1.83
   3   1   8  207.36    6.05
   3   2   8  108.40    4.28
   3   3   8   83.54    3.81
   3   4   8   71.05    2.38
   3   5   8   70.27    2.38
   3   6   8   47.76    2.06
   3   7   8   55.14    2.19
   3   8   8   60.86    2.35
   3   9   8   40.41    2.04
   3  10   8    8.02    1.03
   3  11   8  182.16    4.05
   3  12   8   31.48    1.95
   3  13   8   11.50    1.07
   3  14   8    8.35    0.90
   3  15   8   32.84    1.80
   3  16   8   27.98    1.80
   3  17   8   20.44    1.64
   3  18   8   15.16    1.18
   3  19   8   42.07    2.02
   3   0   9  125.76    4.94
   3   1   9   21.77    2.56
   3   2   9   35.33    2.94
   3   3   9   25.42    2.72
   3   4   9  185.80    6.14
   3   5   9    0.26    0.85
   3   6   9   14.74    1.20
   3   7   9   16.44    1.36
   3   8   9   78.82    2.80
   3   9   9   11.48    1.16
   3  10   9   50.94    2.36
   3  11   9    7.75    1.08
   3  12   9    9.00    1.13
   3  13   9    2.81    0.96
   3  14   9   56.78    2.48
   3  15   9   11.69    1.11
   3  16   9   16.44    1.20
   3  17   9   39.71    1.97
   3   0  10    1.56    2.12
   3   1  10  104.58    4.75
   3   2  10   50.60    3.64
   3   3  10  150.30    5.79
   3   4  10   21.77    2.88
   3   5  10   13.03    2.58
   3   6  10   42.53    2.27
   3   7  10   21.32    1.61
   3   8  10   13.22    1.24
   3   9  10   60.83    2.65
   3  10  10   13.84    1.53
   3  11  10    8.34    1.11
   3  12  10    2.05    0.93
   3  13  10   34.74    2.22
   3  14  10   30.93    2.06
   3   0  11    2.26    2.43
   3   1  11   20.00    3.05
   3   2  11   27.61    3.15
   3   3  11   63.51    4.16
   3   4  11   30.87    3.41
   3   5  11   28.53    3.19
   3   6  11   22.12    3.10
   3   7  11   41.11    2.35
   3   8  11   11.89    1.46
   3   9  11   19.61    1.53
   3  10  11   16.38    1.58
   3  11  11   17.13    5.37
   3   0  12   10.06    3.04
   3   1  12   13.33    3.05
   3   2  12    5.96    2.79
   3   3  12    1.41    2.79
   3   4  12    1.83    2.66
   4   0   0  715.43    7.10
   4   1   0  704.74    7.07
   4   2   0   73.44    1.28
   4   3   0    3.20    0.57
   4   4   0   67.45    1.28
   4   5   0   28.12    0.92
   4   6   0  240.09    2.97
   4   7   0  160.63    2.31
   4   8   0  241.50    3.10
   4   9   0  237.44    3.14
   4  10   0  126.02    2.18
   4  11   0   23.09    1.12
   4  12   0  438.35    5.41
   4  13   0  126.19    2.39
   4  14   0    5.14    0.67
   4  15   0   23.05    1.31
   4  16   0  165.08    3.08
   4  17   0    2.16    0.63
   4  18   0    3.72    0.71
   4  19   0   13.22    1.20
   4  20   0    0.51    0.68
   4  21   0   14.57    1.14
   4  22   0    0.08    0.75
   4  23   0    8.73    0.93
   4  24   0   39.83    1.98
   4   0   1    2.67    0.53
   4   1   1  270.93    3.10
   4   2   1   63.12    1.20
   4   3   1  274.69    3.18
   4   4   1   22.12    0.84
   4   5   1  109.44    1.73
   4   6   1   79.29    1.50
   4   7   1  447.51    4.98
   4   8   1   78.34    1.58
   4   9   1    7.75    0.74
   4  10   1   62.42    1.51
   4  11   1  485.71    5.65
   4  12   1  123.55    2.32
   4  13   1   78.32    1.92
   4  14   1   84.17    2.06
   4  15   1   82.07    2.12
   4  16   1   95.65    2.34
   4  17   1   31.08    1.58
   4  18   1   56.54    1.96
   4  19   1   77.70    2.33
   4  20   1   59.58    2.15
   4  21   1   14.09    1.27
   4  22   1   26.05    1.76
   4  23   1    3.99    0.83
   4  24   1   35.75    1.91
   4  25   1    9.53    1.06
   4   0   2   19.57    0.81
   4   1   2  481.82    5.16
   4   2   2   17.66    0.81
   4   3   2  136.99    1.98
   4   4   2  364.57    4.09
   4   5   2  247.56    3.11
   4   6   2   58.96    1.33
   4   7   2  322.82    3.90
   4   8   2  294.35    3.66
   4   9   2   10.28    0.82
   4  10   2   75.15    1.69
   4  11   2   34.09    1.26
   4  12   2   84.44    1.93
   4  13   2    0.24    0.56
   4  14   2   26.29    1.34
   4  15   2   27.44    1.42
   4  16   2   30.17    1.53
   4  17   2   35.30    1.66
   4  18   2   11.15    0.99
   4  19   2   20.42    1.51
   4  20   2   15.39    1.12
   4  21   2   17.35    1.50
   4  22   2   17.71    1.21
   4  23   2   32.32    1.88
   4  24   2    2.95    0.77
   4   0   3    8.54    0.71
   4   1   3  409.44    4.52
   4   2   3   70.06    1.42
   4   3   3  845.66    8.54
   4   4   3  173.36    2.44
   4   5   3  197.70    2.71
   4   6   3    9.89    0.78
   4   7   3  110.23    1.97
   4   8   3  158.83    2.52
   4   9   3   58.30    1.52
   4  10   3   30.85    1.23
   4  11   3   54.14    1.58
   4  12   3   76.68    1.93
   4  13   3   22.45    1.28
   4  14   3   41.04    1.62
   4  15   3  134.29    2.78
   4  16   3   49.85    1.85
   4  17   3    1.74    0.66
   4  18   3   39.41    1.81
   4  19   3   63.89    2.19
   4  20   3   24.07    1.60
   4  21   3   61.57    2.29
   4  22   3   46.39    2.13
   4  23   3    1.81    0.74
   4  24   3   25.43    1.76
   4   0   4  140.92    2.17
   4   1   4  226.11    2.98
   4   2   4   62.20    1.44
   4   3   4  176.36    2.56
   4   4   4   64.01    1.48
   4   5   4  159.20    2.47
   4   6   4  102.24    1.96
   4   7   4   78.34    1.74
   4   8   4   16.27    0.98
   4   9   4    2.63    0.83
   4  10   4   65.81    1.74
   4  11   4   44.78    1.54
   4  12   4  125.79    2.55
   4  13   4   47.58    1.69
   4  14   4   16.77    1.16
   4  15   4   73.01    2.18
   4  16   4   98.33    2.55
   4  17   4  108.61    2.77
   4  18   4    2.89    0.74
   4  19   4   15.50    1.16
   4  20   4   41.08    1.99
   4  21   4   36.69    1.91
   4  22   4    3.81    0.86
   4  23   4  116.65    3.01
   4   0   5   50.92    1.41
   4   1   5   41.98    1.30
   4   2   5   11.30    0.89
   4   3   5  298.81    3.85
   4   4   5   52.14    1.45
   4   5   5  154.40    2.57
   4   6   5   25.13    1.14
   4   7   5   64.21    1.72
   4   8   5   87.94    2.00
   4   9   5   81.92    2.03
   4  10   5   49.53    1.62
   4  11   5   18.03    1.21
   4  12   5   35.24    1.59
   4  13   5   12.27    1.08
   4  14   5   15.51    1.17
   4  15   5    3.57    0.72
   4  16   5   38.66    1.80
   4  17   5   18.89    1.46
   4  18   5    4.21    0.80
   4  19   5    9.94    0.95
   4  20   5   52.98    2.18
   4  21   5    4.06    0.80
   4  22   5    1.98    0.74
   4   0   6    0.53    0.79
   4   1   6  161.33    2.74
   4   2   6   27.94    1.25
   4   3   6   46.94    1.54
   4   4   6   21.64    1.21
   4   5   6  251.75    3.68
   4   6   6   75.31    1.96
   4   7   6   73.71    1.98
   4   8   6   98.89    2.33
   4   9   6  247.58    3.86
   4  10   6   48.19    1.78
   4  11   6   66.65    2.00
   4  12   6  115.27    2.68
   4  13   6   89.96    2.42
   4  14   6   22.79    1.50
   4  15   6   99.69    2.67
   4  16   6   33.34    1.77
   4  17   6   77.26    2.47
   4  18   6   48.52    2.07
   4  19   6   67.62    2.37
   4  20   6    3.39    0.79
   4  21   6   41.03    2.02
   4   0   7  252.28    3.83
   4   1   7   17.21    1.31
   4   2   7   23.42    1.53
   4   3   7   22.10    1.49
   4   4   7  119.01    2.89
   4   5   7   29.93    1.65
   4   6   7   36.76    1.57
   4   7   7   47.73    1.76
   4   8   7   94.23    2.40
   4   9   7   11.38    1.08
   4  10   7   80.15    2.26
   4  11   7   95.10    2.53
   4  12   7   73.05    2.26
   4  13   7   19.20    1.34
   4  14   7   55.87    2.14
   4  15   7    3.88    0.78
   4  16   7    6.15    0.85
   4  17   7   17.17    1.41
   4  18   7   10.41    0.97
   4  19   7   23.59    1.66
   4  20   7    3.56    0.79
   4   0   8   80.87    3.81
   4   1   8   35.84    2.26
   4   2   8   25.07    1.66
   4   3   8   21.56    1.63
   4   4   8   53.28    2.16
   4   5   8    8.05    0.98
   4   6   8   16.50    1.39
   4   7   8   59.49    2.37
   4   8   8    6.82    0.99
   4   9   8  162.74    3.86
   4  10   8   34.99    1.80
   4  11   8   16.15    1.34
   4  12   8    1.55    0.72
   4  13   8   95.95    2.75
   4  14   8   62.29    2.31
   4  15   8    4.09    0.81
   4  16   8   17.91    1.43
   4  17   8    0.10    0.71
   4  18   8   29.69    1.80
   4   0   9   35.14    3.02
   4   1   9   25.04    2.72
   4   2   9   24.29    2.66
   4   3   9   44.16    2.19
   4   4   9  108.33    3.12
   4   5   9   25.37    1.84
   4   6   9   66.11    2.65
   4   7   9   10.23    1.14
   4   8   9  155.68    3.87
   4   9   9   31.10    2.02
   4  10   9   36.37    2.10
   4  11   9    0.64    0.95
   4  12   9   43.51    2.36
   4  13   9   16.98    1.39
   4  14   9   21.50    1.64
   4  15   9   48.47    2.11
   4  16   9    4.48    0.82
   4   1  10  151.66    5.89
   4   2  10   25.94    2.99
   4   3  10    5.67    2.35
   4   4  10   55.27    2.49
   4   5  10  105.51    3.33
   4   6  10   51.39    2.49
   4   7  10   28.47    2.03
   4   8  10   28.31    2.04
   4   9  10    1.41    0.94
   4  10  10   27.55    2.03
   4  11  10   12.91    1.24
   4  12  10    2.95    0.98
   4  13  10   15.86    1.30
   4   0  11   50.92    3.90
   4   1  11    2.96    2.43
   4   2  11    5.80    2.46
   4   3  11   16.48    2.86
   4   4  11   60.31    4.12
   4   5  11   23.99    2.46
   4   6  11    0.91    0.95
   4   7  11   12.34    1.23
   4   8  11   37.61    2.32
   4   9  11   17.98    1.57
   5   1   0   73.34    1.41
   5   2   0   79.69    1.52
   5   3   0  421.89    4.70
   5   4   0  111.42    1.87
   5   5   0  133.44    2.09
   5   6   0    0.19    0.59
   5   7   0   21.53    0.99
   5   8   0   29.85    1.13
   5   9   0   46.70    1.37
   5  10   0   70.43    1.70
   5  11   0   67.40    1.74
   5  12   0    2.95    0.87
   5  13   0   22.33    1.28
   5  14   0   96.12    2.29
   5  15   0   28.13    1.50
   5  16   0    8.37    0.79
   5  17   0   19.19    1.27
   5  18   0   11.48    1.17
   5  19   0    0.26    0.67
   5  20   0    0.80    0.69
   5  21   0    1.68    0.73
   5  22   0   14.50    1.16
   5  24   0    3.76    0.80
   5   0   1   10.89    0.75
   5   1   1  244.16    3.03
   5   2   1  166.09    2.35
   5   3   1  696.94    7.14
   5   4   1    9.68    0.74
   5   5   1   65.17    1.42
   5   6   1  129.90    2.13
   5   7   1  281.96    3.58
   5   8   1    5.84    0.76
   5   9   1  106.65    2.06
   5  10   1   23.25    1.12
   5  11   1  125.03    2.35
   5  12   1   39.75    1.49
   5  13   1   34.72    1.52
   5  14   1   29.59    1.43
   5  15   1  398.29    5.34
   5  16   1  112.22    2.63
   5  17   1    7.79    0.82
   5  18   1   14.09    1.25
   5  19   1   98.04    2.72
   5  20   1   94.54    2.66
   5  21   1    6.43    0.87
   5  22   1    1.65    0.74
   5  23   1    3.44    0.79
   5  24   1   26.78    1.72
   5   0   2  604.59    6.41
   5   1   2  309.58    3.75
   5   2   2    1.04    0.61
   5   3   2  461.18    5.19
   5   4   2  156.80    2.37
   5   5   2   77.88    1.61
   5   6   2   12.05    0.84
   5   7   2   23.64    1.06
   5   8   2   53.30    1.46
   5   9   2   68.46    1.68
   5  10   2    2.56    0.80
   5  11   2   29.74    1.32
   5  12   2  227.46    3.53
   5  13   2    0.88    0.61
   5  14   2   13.81    1.21
   5  15   2    5.63    0.72
   5  16   2  110.81    2.66
   5  17   2   26.92    1.57
   5  18   2   21.14    1.49
   5  19   2   55.52    2.08
   5  20   2    3.95    0.80
   5  21   2   71.48    2.43
   5  22   2    3.24    0.79
   5  23   2    9.80    1.05
   5  24   2   13.46    1.65
   5   0   3   56.89    1.40
   5   1   3  363.33    4.32
   5   2   3   44.76    1.26
   5   3   3   17.49    0.94
   5   4   3    2.48    0.70
   5   5   3  125.57    2.17
   5   6   3   63.64    1.56
   5   7   3  117.22    2.18
   5   8   3   34.02    1.26
   5   9   3   16.59    1.08
   5  10   3   79.13    1.94
   5  11   3   47.39    1.62
   5  12   3   50.23    1.70
   5  13   3   35.01    1.55
   5  14   3   86.10    2.24
   5  15   3    6.81    0.77
   5  16   3   93.07    2.52
   5  17   3   43.44    1.86
   5  18   3   43.83    1.94
   5  19   3    8.10    0.90
   5  20   3  103.48    2.86
   5  21   3   15.11    1.20
   5  22   3    8.79    0.93
   5  23   3   15.85    1.17
   5   0   4    0.52    0.68
   5   1   4  127.87    2.21
   5   2   4   79.86    1.73
   5   3   4   51.79    1.47
   5   4   4   31.60    1.21
   5   5   4   11.43    0.93
   5   6   4   51.93    1.53
   5   7   4   55.07    1.59
   5   8   4  163.62    2.80
   5   9   4    4.89    0.69
   5  10   4  204.81    3.35
   5  11   4   63.33    1.89
   5  12   4  156.76    2.97
   5  13   4    8.04    0.77
   5  14   4  157.51    3.15
   5  15   4   37.84    1.77
   5  16   4   40.60    1.82
   5  17   4   15.10    1.26
   5  18   4   46.69    2.00
   5  19   4  138.53    3.28
   5  20   4    0.10    0.70
   5  21   4   80.80    2.58
   5  22   4   21.47    1.72
   5   0   5   12.92    1.02
   5   1   5  340.44    4.36
   5   2   5   58.21    1.62
   5   3   5   29.43    1.24
   5   4   5  133.38    2.49
   5   5   5  108.88    2.28
   5   6   5   34.05    1.43
   5   7   5   63.09    1.78
   5   8   5   91.85    2.20
   5   9   5   19.97    1.28
   5  10   5   34.64    1.53
   5  11   5   37.31    1.63
   5  12   5    1.77    0.63
   5  13   5   32.49    1.65
   5  14   5   77.31    2.27
   5  15   5    2.41    0.72
   5  16   5   34.24    1.73
   5  17   5    6.73    0.86
   5  18   5   54.01    2.15
   5  19   5    5.76    0.87
   5  20   5   21.81    1.71
   5  21   5   16.12    1.21
   5   0   6   86.60    2.11
   5   1   6   83.10    2.04
   5   2   6   20.27    1.27
   5   3   6   98.65    2.25
   5   4   6   90.99    2.20
   5   5   6  146.75    2.83
   5   6   6   24.55    1.34
   5   7   6  191.47    3.34
   5   8   6   40.17    1.66
   5   9   6   38.51    1.61
   5  10   6  126.15    2.78
   5  11   6  146.43    3.06
   5  12   6    0.94    0.65
   5  13   6  123.00    2.92
   5  14   6   98.60    2.67
   5  15   6   27.94    1.66
   5  16   6    9.75    0.94
   5  17   6   96.55    2.79
   5  18   6   13.25    1.17
   5  19   6    9.56    0.95
   5  20   6    0.01    0.71
   5   0   7    2.72    0.68
   5   1   7   54.68    1.82
   5   2   7   30.58    1.55
   5   3   7    7.35    0.79
   5   4   7  196.70    3.45
   5   5   7   18.93    1.23
   5   6   7   38.42    1.66
   5   7   7   17.77    1.36
   5   8   7  183.19    3.46
   5   9   7   20.86    1.39
   5  10   7    3.68    0.75
   5  11   7    7.81    0.85
   5  12   7   24.25    1.45
   5  13   7   29.66    1.69
   5  14   7   11.71    0.98
   5  15   7   33.47    1.83
   5  16   7   14.37    1.35
   5  17   7    8.98    0.94
   5  18   7    5.37    0.85
   5   0   8   66.97    2.14
   5   1   8   87.33    2.40
   5   2   8    5.94    0.78
   5   3   8    1.26    0.65
   5   4   8   35.66    1.76
   5   5   8  256.40    4.27
   5   6   8    2.16    1.45
   5   7   8    9.62    0.90
   5   8   8    5.39    0.81
   5   9   8   44.16    1.93
   5  10   8    3.77    0.78
   5  11   8   23.25    1.61
   5  12   8   14.78    1.16
   5  13   8   59.36    2.31
   5  14   8   14.91    1.19
   5  15   8   16.12    1.19
   5  16   8   21.84    1.64
   5  17   8  107.72    2.91
   5   0   9    1.25    1.45
   5   1   9   54.98    2.08
   5   2   9   64.88    2.59
   5   3   9   10.05    1.12
   5   4   9   11.37    1.16
   5   5   9   25.94    1.94
   5   6   9   49.85    2.35
   5   7   9   17.43    1.53
   5   8   9    2.02    0.93
   5   9   9    2.42    0.75
   5  10   9   39.01    1.96
   5  11   9   28.38    1.80
   5  12   9    3.13    0.78
   5  13   9   16.05    1.20
   5  14   9   12.42    1.00
   5  15   9    4.80    0.83
   5   0  10  137.14    5.71
   5   1  10    9.52    1.64
   5   2  10    5.19    1.04
   5   3  10   93.48    3.14
   5   4  10   44.95    2.35
   5   5  10   54.87    2.65
   5   6  10   12.08    1.24
   5   7  10   32.62    2.15
   5   8  10   12.76    1.24
   5   9  10   59.81    2.59
   5  10  10    1.58    0.96
   5  11  10    3.70    0.98
   5  12  10   10.74    0.97
   5   0  11    6.83    2.77
   5   1  11   43.54    3.66
   5   2  11   22.46    2.95
   5   3  11   29.92    2.14
   5   4  11   20.09    1.66
   5   5  11    0.11    0.94
   5   6  11   72.65    2.80
   5   7  11    4.43    1.03
   6   0   0  245.06    3.21
   6   1   0  120.86    2.05
   6   2   0    8.82    0.80
   6   3   0   57.72    1.45
   6   4   0   18.10    0.94
   6   5   0  139.35    2.34
   6   6   0  128.54    2.27
   6   7   0  153.75    2.58
   6   8   0  107.43    2.14
   6   9   0    0.42    0.79
   6  10   0  160.24    2.85
   6  11   0    0.47    0.58
   6  12   0  116.74    2.48
   6  13   0   39.10    1.63
   6  14   0   16.84    1.17
   6  15   0   51.85    1.86
   6  16   0   13.28    1.16
   6  17   0   16.28    1.26
   6  18   0   38.66    1.88
   6  19   0   12.70    1.25
   6  21   0    4.13    0.81
   6  22   0   42.91    2.00
   6  23   0    1.23    0.73
   6   0   1   72.05    1.59
   6   1   1  215.98    2.98
   6   2   1  156.09    2.44
   6   3   1  138.72    2.30
   6   4   1  159.52    2.52
   6   5   1  190.47    2.84
   6   6   1   17.26    0.98
   6   7   1  111.18    2.15
   6   8   1   96.22    2.04
   6   9   1    2.66    0.86
   6  10   1    2.65    0.61
   6  11   1   48.56    1.64
   6  12   1   23.27    1.37
   6  13   1  217.80    3.62
   6  14   1   74.93    2.15
   6  15   1   33.79    1.63
   6  16   1   21.38    1.43
   6  17   1  130.95    3.01
   6  18   1  120.83    2.96
   6  19   1   33.73    1.80
   6  20   1   23.99    1.67
   6  21   1   14.64    1.18
   6  22   1   39.73    1.99
   6  23   1   17.00    1.58
   6   0   2   34.97    1.19
   6   1   2  207.57    2.96
   6   2   2  317.16    4.01
   6   3   2    6.03    0.78
   6   4   2    1.57    0.74
   6   5   2   86.17    1.86
   6   6   2   17.29    1.02
   6   7   2   32.66    1.30
   6   8   2   84.73    1.97
   6   9   2    9.92    1.04
   6  10   2  193.57    3.21
   6  11   2    6.74    0.74
   6  12   2   55.50    1.86
   6  13   2   19.59    1.22
   6  14   2  165.95    3.25
   6  15   2    1.85    0.66
   6  16   2   12.69    1.06
   6  17   2   25.94    1.62
   6  18   2   13.58    1.11
   6  19   2   12.61    1.10
   6  20   2    3.33    0.79
   6  21   2   15.90    1.39
   6  22   2   11.32    0.99
   6  23   2   24.45    2.81
   6   0   3   22.35    1.09
   6   1   3  180.68    2.79
   6   2   3   30.13    1.23
   6   3   3  362.97    4.49
   6   4   3  121.09    2.26
   6   5   3    8.26    0.94
   6   6   3   44.38    1.46
   6   7   3  104.37    2.19
   6   8   3   41.47    1.50
   6   9   3   46.04    1.62
   6  10   3    2.35    0.65
   6  11   3   12.40    0.94
   6  12   3   37.59    1.63
   6  13   3    7.96    0.79
   6  14   3   87.13    2.41
   6  15   3   58.55    2.06
   6  16   3   51.43    2.03
   6  17   3   23.20    1.59
   6  18   3  126.17    3.10
   6  19   3   85.21    2.66
   6  20   3    5.47    0.86
   6  21   3   37.95    2.00
   6  22   3   52.43    2.19
   6   0   4    1.91    0.79
   6   1   4  170.37    2.83
   6   2   4   38.07    1.38
   6   3   4  102.91    2.15
   6   4   4    1.66    0.89
   6   5   4   66.72    1.82
   6   6   4  121.36    2.46
   6   7   4    8.94    0.76
   6   8   4   30.63    1.42
   6   9   4   72.43    2.03
   6  10   4   87.54    2.27
   6  11   4    4.51    0.69
   6  12   4   49.54    1.85
   6  13   4    8.47    0.83
   6  14   4   71.91    2.27
   6  15   4    6.91    0.84
   6  16   4   57.86    2.14
   6  17   4  145.54    3.30
   6  18   4   17.91    1.44
   6  19   4   56.91    2.27
   6  20   4   22.40    1.67
   6  21   4   98.75    2.82
   6   0   5   25.90    1.36
   6   1   5  117.80    2.42
   6   2   5   35.63    1.46
   6   3   5  192.14    3.21
   6   4   5   34.59    1.48
   6   5   5    7.58    0.75
   6   6   5   79.41    2.07
   6   7   5   18.40    1.28
   6   8   5    0.47    0.66
   6   9   5   61.10    1.98
   6  10   5    4.15    0.70
   6  11   5   35.03    1.67
   6  12   5   41.98    1.81
   6  13   5   17.27    1.14
   6  14   5   41.01    1.89
   6  15   5    3.46    0.77
   6  16   5   30.49    1.81
   6  17   5    3.42    0.79
   6  18   5   32.15    1.82
   6  19   5   10.89    0.98
   6  20   5    0.16    0.69
   6   0   6   92.21    2.27
   6   1   6  183.19    3.23
   6   2   6  131.13    2.74
   6   3   6  101.28    2.41
   6   4   6   35.60    1.59
   6   5   6  144.26    2.93
   6   6   6  133.89    2.84
   6   7   6   11.48    0.87
   6   8   6   19.62    1.41
   6   9   6  137.69    3.02
   6  10   6   23.04    1.56
   6  11   6   60.14    2.13
   6  12   6   73.41    2.31
   6  13   6   62.98    2.26
   6  14   6   23.87    1.69
   6  15   6   78.91    2.49
   6  16   6   52.24    2.13
   6  17   6   41.32    2.00
   6  18   6   15.65    1.08
   6  19   6   25.94    1.71
   6   0   7   32.11    1.57
   6   1   7    4.08    0.71
   6   2   7   90.53    2.41
   6   3   7   21.41    1.45
   6   4   7   14.81    1.19
   6   5   7   37.51    1.68
   6   6   7  178.74    3.45
   6   7   7    4.20    0.76
   6   8   7   34.49    1.70
   6   9   7    9.23    0.99
   6  10   7  105.14    2.76
   6  11   7    9.29    0.92
   6  12   7   31.74    1.83
   6  13   7   28.17    1.78
   6  14   7   25.07    1.72
   6  15   7    6.38    0.88
   6  16   7    0.17    0.72
   6  17   7   21.59    1.58
   6  18   7   12.85    1.00
   6   0   8   51.57    1.98
   6   1   8    2.26    0.71
   6   2   8   26.86    1.58
   6   3   8   89.72    2.52
   6   4   8   14.14    1.26
   6   5   8    6.19    0.82
   6   6   8   23.97    1.62
   6   7   8   96.71    2.66
   6   8   8    1.32    0.71
   6   9   8    5.72    0.85
   6  10   8   14.24    1.20
   6  11   8   32.08    1.88
   6  12   8    4.38    0.83
   6  13   8   19.03    1.35
   6  14   8   27.80    1.77
   6  15   8   75.15    2.49
   6  16   8   38.50    1.97
   6   0   9   71.12    2.39
   6   1   9    2.02    0.74
   6   2   9   20.82    1.58
   6   3   9   20.42    1.48
   6   4   9   16.35    1.38
   6   5   9    4.94    0.83
   6   6   9   23.81    1.65
   6   7   9   12.80    1.02
   6   8   9   54.81    2.15
   6   9   9   10.61    0.98
   6  10   9   76.77    2.54
   6  11   9   11.97    1.11
   6  12   9   66.38    2.38
   6  13   9   25.43    1.72
   6   0  10    8.99    0.95
   6   1  10   79.25    2.54
   6   2  10   83.49    2.64
   6   3  10    2.94    0.83
   6   4  10   12.81    1.02
   6   5  10   94.10    2.76
   6   6  10   15.61    1.20
   6   7  10   41.15    2.04
   6   8  10    2.87    0.78
   6   9  10    8.27    0.92
   6   0  11   13.56    1.15
   6   1  11   53.99    2.53
   6   2  11    7.82    1.10
   7   2   0  130.25    2.37
   7   3   0   24.91    1.14
   7   4   0    6.95    0.92
   7   5   0   95.83    2.11
   7   6   0   38.47    1.45
   7   7   0    4.41    0.64
   7   8   0   63.19    1.80
   7   9   0   78.27    2.04
   7  10   0  178.65    3.19
   7  11   0   59.65    1.91
   7  12   0   44.27    1.72
   7  13   0    0.15    0.64
   7  14   0   31.74    1.62
   7  15   0   27.58    1.61
   7  16   0    4.53    0.79
   7  17   0   20.95    1.56
   7  18   0    2.24    0.75
   7  19   0    5.65    0.85
   7  20   0   45.28    2.02
   7  21   0   32.51    1.87
   7  22   0    2.61    0.80
   7   0   1  398.97    4.92
   7   1   1  102.80    2.08
   7   2   1   28.98    1.24
   7   3   1   75.58    1.80
   7   4   1  127.47    2.38
   7   5   1  132.84    2.48
   7   6   1   72.61    1.87
   7   7   1   41.60    1.51
   7   8   1    2.08    0.62
   7   9   1  182.51    3.19
   7  10   1   34.69    1.54
   7  11   1   33.12    1.57
   7  12   1    0.93    0.60
   7  13   1   67.32    2.11
   7  14   1   32.91    1.74
   7  15   1   19.54    1.44
   7  16   1   31.56    1.76
   7  17   1   65.45    2.30
   7  18   1   77.96    2.50
   7  19   1   47.92    2.11
   7  20   1   20.36    1.64
   7  21   1   45.88    2.10
   7  22   1   61.15    2.32
   7   0   2   20.92    1.15
   7   1   2    3.72    0.88
   7   2   2   70.57    1.79
   7   3   2   52.94    1.58
   7   4   2   22.99    1.21
   7   5   2   92.00    2.08
   7   6   2  379.75    4.90
   7   7   2   12.88    0.92
   7   8   2   31.80    1.47
   7   9   2   42.86    1.70
   7  10   2  258.91    4.03
   7  11   2   19.39    1.20
   7  12   2  106.10    2.58
   7  13   2    9.59    0.94
   7  14   2   10.48    0.91
   7  15   2   36.38    1.74
   7  16   2   27.59    1.69
   7  17   2   11.19    1.07
   7  18   2   20.42    1.59
   7  19   2    3.02    0.79
   7  20   2    3.43    0.81
   7  21   2    1.78    0.74
   7   0   3    6.84    0.97
   7   1   3  214.82    3.35
   7   2   3   54.86    1.68
   7   3   3   32.63    1.41
   7   4   3   44.64    1.57
   7   5   3  186.83    3.14
   7   6   3   80.59    2.04
   7   7   3   21.85    1.28
   7   8   3   68.11    1.97
   7   9   3   10.33    0.93
   7  10   3   10.89    0.93
   7  11   3   10.82    1.08
   7  12   3   27.06    1.53
   7  13   3   38.83    1.79
   7  14   3   77.39    2.40
   7  15   3   29.70    1.70
   7  16   3   44.67    2.06
   7  17   3   59.01    2.26
   7  18   3   14.38    1.17
   7  19   3   38.43    1.98
   7  20   3   23.00    1.67
   7  21   3   16.11    1.36
   7   0   4    4.76    0.69
   7   1   4  120.53    2.50
   7   2   4   21.71    1.30
   7   3   4   42.52    1.61
   7   4   4  103.67    2.35
   7   5   4   94.32    2.30
   7   6   4   88.28    2.23
   7   7   4    8.21    0.80
   7   8   4   16.62    1.17
   7   9   4   30.01    1.56
   7  10   4   21.46    1.42
   7  11   4   25.44    1.56
   7  12   4   49.50    1.96
   7  13   4   71.55    2.37
   7  14   4   21.45    1.58
   7  15   4   69.45    2.38
   7  16   4   64.44    2.29
   7  17   4   42.11    1.96
   7  18   4   29.26    1.79
   7  19   4   46.58    2.15
   7  20   4    3.52    0.80
   7   0   5    5.46    0.73
   7   1   5   40.06    1.63
   7   2   5   39.42    1.59
   7   3   5   13.16    1.12
   7   4   5   57.07    1.91
   7   5   5   59.28    1.93
   7   6   5   49.57    1.83
   7   7   5   81.62    2.29
   7   8   5  113.76    2.71
   7   9   5    8.76    0.85
   7  10   5   80.31    2.37
   7  11   5   21.84    1.54
   7  12   5   51.14    2.08
   7  13   5    8.33    0.89
   7  14   5   96.64    2.72
   7  15   5    5.72    0.85
   7  16   5   22.11    1.50
   7  17   5    7.32    0.90
   7  18   5   10.30    0.96
   7  19   5    9.96    0.95
   7   0   6   26.13    1.48
   7   1   6  111.39    2.65
   7   2   6  140.04    2.97
   7   3   6  104.67    2.61
   7   4   6   99.51    2.52
   7   5   6   11.78    0.98
   7   6   6   22.00    1.51
   7   7   6   61.09    2.14
   7   8   6   51.53    2.01
   7   9   6   16.17    1.30
   7  10   6   13.59    1.25
   7  11   6   45.79    1.96
   7  12   6   12.13    1.10
   7  13   6   24.35    1.66
   7  14   6   19.62    1.41
   7  15   6   31.70    1.86
   7  16   6   34.32    1.90
   7  17   6   26.88    1.79
   7  18   6   12.77    1.13
   7   0   7   55.52    2.07
   7   1   7    2.22    0.70
   7   2   7  131.32    3.02
   7   3   7   14.86    1.27
   7   4   7    5.67    0.80
   7   5   7    8.74    0.88
   7   6   7    5.92    0.82
   7   7   7   40.41    1.88
   7   8   7   64.44    2.24
   7   9   7   31.14    1.82
   7  10   7   67.13    2.36
   7  11   7   23.40    1.50
   7  12   7   37.27    1.99
   7  13   7   13.85    1.16
   7  14   7   52.71    2.26
   7  15   7   12.47    1.01
   7  16   7    0.34    1.48
   7   0   8    2.16    0.74
   7   1   8   58.50    2.22
   7   2   8  129.17    3.07
   7   3   8   33.07    1.78
   7   4   8   11.50    1.09
   7   5   8   19.04    1.53
   7   6   8    8.15    0.90
   7   7   8   15.72    1.33
   7   8   8    7.10    0.96
   7   9   8   42.61    2.02
   7  10   8    3.82    0.82
   7  11   8   50.09    2.15
   7  12   8   31.18    1.82
   7  13   8   38.20    1.92
   7  14   8    4.42    0.81
   7   0   9    8.45    0.93
   7   1   9    8.09    0.91
   7   2   9   18.92    1.44
   7   3   9   13.06    1.08
   7   4   9   35.00    1.90
   7   5   9   19.44    1.27
   7   6   9   18.75    1.34
   7   7   9    6.93    0.89
   7   8   9  104.59    2.91
   7   9   9    1.26    1.59
   7  10   9   57.62    2.23
   7  11   9   11.99    0.99
   7   0  10    0.40    0.77
   7   1  10   56.67    2.25
   7   2  10    7.15    0.88
   7   3  10  120.23    3.07
   7   4  10   13.56    1.03
   7   5  10    1.31    0.76
   7   6  10   17.67    1.60
   8   0   0    4.28    0.66
   8   1   0    3.12    0.64
   8   2   0   89.93    2.11
   8   3   0    0.26    0.60
   8   4   0    4.32    0.68
   8   5   0   19.30    1.24
   8   6   0  238.96    3.78
   8   7   0   32.72    1.55
   8   8   0   10.41    0.93
   8   9   0  116.70    2.68
   8  10   0   32.42    1.61
   8  11   0   41.47    1.75
   8  12   0   18.55    1.20
   8  13   0  106.36    2.73
   8  14   0    2.32    0.73
   8  15   0    3.26    0.77
   8  16   0   65.94    2.30
   8  17   0   30.97    1.78
   8  18   0    0.96    0.73
   8  19   0   16.89    1.22
   8  20   0    1.43    0.74
   8   0   1   57.35    1.79
   8   1   1   56.61    1.75
   8   2   1  175.33    3.05
   8   3   1    2.25    0.63
   8   4   1   59.40    1.82
   8   5   1  121.54    2.57
   8   6   1    4.64    0.72
   8   7   1   39.76    1.62
   8   8   1    9.29    0.90
   8   9   1  111.14    2.66
   8  10   1    7.90    0.80
   8  11   1    7.23    0.81
   8  12   1   38.62    1.80
   8  13   1   47.78    1.94
   8  14   1    8.27    0.89
   8  15   1   33.79    1.79
   8  16   1   15.88    1.38
   8  17   1   33.47    1.88
   8  18   1    7.15    0.90
   8  19   1   73.89    2.48
   8  20   1   68.19    2.37
   8   0   2    1.01    0.61
   8   1   2    5.69    0.71
   8   2   2   58.79    1.82
   8   3   2   20.77    1.31
   8   4   2  235.67    3.75
   8   5   2    5.60    0.74
   8   6   2   90.93    2.29
   8   7   2   22.74    1.47
   8   8   2  332.23    4.79
   8   9   2    3.58    0.69
   8  10   2   42.14    1.79
   8  11   2    7.65    0.83
   8  12   2   50.50    1.97
   8  13   2    5.00    0.80
   8  14   2   49.53    2.03
   8  15   2    6.74    0.86
   8  16   2   38.68    1.92
   8  17   2    9.81    0.97
   8  18   2    5.32    0.85
   8  19   2    5.50    0.85
   8  20   2   18.98    1.39
   8   0   3  150.89    2.92
   8   1   3    3.47    0.69
   8   2   3   26.80    1.44
   8   3   3   63.66    1.92
   8   4   3   76.60    2.13
   8   5   3   41.88    1.70
   8   6   3   65.28    2.00
   8   7   3   63.69    2.02
   8   8   3   38.73    1.67
   8   9   3  108.79    2.67
   8  10   3  129.26    2.96
   8  11   3   20.00    1.48
   8  12   3  114.98    2.88
   8  13   3   68.33    2.29
   8  14   3   29.04    1.69
   8  15   3    0.98    0.71
   8  16   3   22.36    1.63
   8  17   3    5.90    0.87
   8  18   3   10.88    0.97
   8  19   3    3.38    0.79
   8   0   4   10.04    0.90
   8   1   4   25.66    1.39
   8   2   4   29.79    1.50
   8   3   4   83.64    2.25
   8   4   4   43.34    1.74
   8   5   4   22.02    1.36
   8   6   4   12.58    0.94
   8   7   4   74.98    2.26
   8   8   4  118.95    2.84
   8   9   4   44.76    1.85
   8  10   4   56.12    2.09
   8  11   4   99.09    2.69
   8  12   4   28.57    1.67
   8  13   4   44.99    1.99
   8  14   4   45.57    2.06
   8  15   4   70.89    2.43
   8  16   4   15.33    1.08
   8  17   4   13.05    1.14
   8  18   4    1.01    0.72
   8   0   5    1.21    0.64
   8   1   5   42.68    1.73
   8   2   5   33.21    1.61
   8   3   5   27.11    1.54
   8   4   5   31.17    1.61
   8   5   5   61.89    2.12
   8   6   5   84.95    2.42
   8   7   5   15.16    1.26
   8   8   5   67.46    2.27
   8   9   5   24.58    1.62
   8  10   5   90.43    2.63
   8  11   5    2.01    0.73
   8  12   5   98.21    2.81
   8  13   5    2.24    0.77
   8  14   5   10.00    0.97
   8  15   5   25.63    1.71
   8  16   5   18.66    1.60
   8  17   5    9.87    0.95
   8   0   6  156.16    3.29
   8   1   6    3.44    0.74
   8   2   6   15.34    1.26
   8   3   6   22.45    1.55
   8   4   6   67.41    2.23
   8   5   6   40.87    1.86
   8   6   6   29.96    1.70
   8   7   6   51.70    2.15
   8   8   6   23.73    1.69
   8   9   6    9.63    0.94
   8  10   6    0.25    0.73
   8  11   6   53.94    2.22
   8  12   6    0.05    0.70
   8  13   6   17.90    1.34
   8  14   6    6.02    0.87
   8  15   6   27.00    1.79
   8  16   6   34.21    1.89
   8   0   7  100.01    2.79
   8   1   7    9.14    0.91
   8   2   7    2.39    0.75
   8   3   7   20.68    1.39
   8   4   7  109.51    2.86
   8   5   7    1.85    0.74
   8   6   7    5.68    0.84
   8   7   7   65.48    2.34
   8   8   7   55.56    2.22
   8   9   7   18.90    1.43
   8  10   7    0.23    0.78
   8  11   7   51.76    2.23
   8  12   7   59.82    2.26
   8  13   7   15.84    1.20
   8  14   7   24.07    1.70
   8   0   8   86.72    2.65
   8   1   8   81.90    2.59
   8   2   8   18.25    1.39
   8   3   8   64.46    2.38
   8   4   8   21.44    1.49
   8   5   8   25.83    1.78
   8   6   8   16.26    1.15
   8   7   8   24.42    1.72
   8   8   8    5.67    0.86
   8   9   8    7.15    0.90
   8  10   8    8.14    0.91
   8  11   8   40.99    1.99
   8   0   9   11.42    0.99
   8   1   9   10.62    0.98
   8   2   9   36.45    1.98
   8   3   9   31.31    1.85
   8   4   9   32.72    1.91
   8   5   9    1.65    0.79
   8   6   9   80.73    2.50
   8   7   9   42.36    2.02
   8   8   9   13.72    1.18
   9   1   0    1.04    0.60
   9   2   0   44.00    1.73
   9   4   0  324.84    4.78
   9   5   0    1.06    1.25
   9   6   0   12.22    0.99
   9   7   0   13.21    1.17
   9   8   0  230.97    4.02
   9   9   0    8.03    0.85
   9  10   0   28.83    1.66
   9  11   0   45.88    1.96
   9  12   0   10.13    0.94
   9  13   0   12.40    1.00
   9  14   0   77.28    2.51
   9  15   0   68.60    2.39
   9  16   0    0.20    0.74
   9  18   0    8.53    0.92
   9   0   1   13.61    0.99
   9   1   1   21.78    1.38
   9   2   1   48.58    1.80
   9   3   1   23.81    1.46
   9   4   1   10.74    0.94
   9   5   1   12.77    1.12
   9   6   1   35.99    1.67
   9   7   1   72.14    2.26
   9   8   1   26.20    1.53
   9   9   1   71.11    2.22
   9  10   1    7.92    0.87
   9  11   1   63.45    2.23
   9  12   1    6.00    0.84
   9  13   1  109.32    2.90
   9  14   1   24.99    1.72
   9  15   1    7.71    0.91
   9  16   1   18.78    1.55
   9  17   1   40.18    1.98
   9  18   1    2.55    0.77
   9   0   2  205.68    3.64
   9   1   2    3.32    0.68
   9   2   2    8.39    0.81
   9   3   2    5.14    0.74
   9   4   2  169.14    3.31
   9   5   2   59.86    2.01
   9   6   2   18.36    1.44
   9   7   2   20.49    1.50
   9   8   2   11.55    0.93
   9   9   2  117.16    2.86
   9  10   2   18.45    1.42
   9  11   2   29.12    1.70
   9  12   2   35.63    1.87
   9  13   2   64.86    2.35
   9  14   2   19.46    1.45
   9  15   2   19.98    1.55
   9  16   2   33.62    1.88
   9  17   2    6.74    0.87
   9  18   2   23.97    1.63
   9   0   3   36.96    1.65
   9   1   3   37.76    1.70
   9   2   3  135.05    2.95
   9   3   3    0.12    0.62
   9   4   3   14.27    1.05
   9   5   3   39.69    1.82
   9   6   3   51.11    1.99
   9   7   3   30.28    1.67
   9   8   3  158.06    3.37
   9   9   3   18.32    1.51
   9  10   3   91.25    2.62
   9  11   3   28.76    1.73
   9  12   3   81.55    2.53
   9  13   3    7.22    0.90
   9  14   3   56.20    2.27
   9  15   3    6.57    0.88
   9  16   3    3.96    0.81
   9  17   3    8.98    0.93
   9   0   4  122.21    2.91
   9   1   4    2.90    0.73
   9   2   4    6.33    0.80
   9   3   4   28.05    1.58
   9   4   4   77.94    2.34
   9   5   4   35.31    1.76
   9   6   4   53.50    2.00
   9   7   4   24.29    1.61
   9   8   4   64.38    2.25
   9   9   4   37.69    1.83
   9  10   4   90.06    2.68
   9  11   4    1.06    0.72
   9  12   4   65.57    2.32
   9  13   4    2.41    0.78
   9  14   4    8.21    0.92
   9  15   4    9.78    0.96
   9  16   4    8.69    0.93
   9   0   5  127.17    3.07
   9   1   5   22.46    1.57
   9   2   5   80.12    2.44
   9   3   5   73.86    2.37
   9   4   5   24.32    1.62
   9   5   5    2.10    0.73
   9   6   5   32.73    1.81
   9   7   5   67.35    2.31
   9   8   5   37.87    1.87
   9   9   5    2.95    0.78
   9  10   5    5.34    0.85
   9  11   5   38.15    1.94
   9  12   5   21.43    1.61
   9  13   5   14.30    1.19
   9  14   5    5.15    0.85
   9  15   5   17.36    1.39
   9   0   6    1.62    0.72
   9   1   6    5.25    0.83
   9   2   6   29.44    1.75
   9   3   6   55.65    2.15
   9   4   6   16.85    1.36
   9   5   6   19.90    1.57
   9   6   6   18.55    1.51
   9   7   6   29.38    1.79
   9   8   6    5.86    0.88
   9   9   6   43.67    2.03
   9  10   6    9.59    1.05
   9  11   6   38.75    1.96
   9  12   6   16.90    1.36
   9  13   6   14.40    1.05
   9   0   7   33.66    1.88
   9   1   7   11.12    1.10
   9   2   7   38.03    1.98
   9   3   7   10.11    0.96
   9   4   7   36.06    1.96
   9   5   7   36.93    1.96
   9   6   7  116.08    3.04
   9   7   7    2.48    0.77
   9   8   7   38.75    1.91
   9   9   7   21.13    1.69
   9  10   7   24.63    1.69
   9  11   7    2.58    0.77
   9   0   8    8.06    0.92
   9   1   8    4.31    0.82
   9   2   8    5.42    0.85
   9   3   8   25.05    1.73
   9   4   8   43.33    2.08
   9   5   8   12.77    1.13
   9   6   8   34.76    1.84
   9   7   8   53.92    2.21
   9   8   8    9.31    0.93
  10   0   0  501.89    6.58
  10   1   0    0.14    1.36
  10   2   0   18.90    1.45
  10   3   0    3.21    0.74
  10   4   0  219.32    3.97
  10   5   0   19.30    1.49
  10   6   0   45.08    1.94
  10   7   0    2.43    0.74
  10   8   0    5.66    0.84
  10   9   0   34.09    1.82
  10  10   0    6.82    0.87
  10  11   0    4.50    0.82
  10  12   0    3.55    0.81
  10  14   0   13.72    1.30
  10  15   0    2.93    0.78
  10  16   0    0.28    0.70
  10   0   1    1.37    0.68
  10   1   1   75.37    2.33
  10   2   1   24.33    1.47
  10   3   1   35.18    1.73
  10   4   1   24.12    1.62
  10   5   1   10.68    1.03
  10   6   1   76.32    2.39
  10   7   1   21.79    1.43
  10   8   1    4.01    0.79
  10   9   1   18.53    1.54
  10  10   1   20.33    1.57
  10  11   1   89.49    2.69
  10  12   1   16.47    1.41
  10  13   1   17.17    1.24
  10  14   1   16.30    1.39
  10  15   1   31.23    1.83
  10  16   1    4.34    0.81
  10   0   2   95.25    2.63
  10   1   2    6.76    0.84
  10   2   2   93.34    2.64
  10   3   2   26.53    1.61
  10   4   2   34.65    1.73
  10   5   2    9.85    0.92
  10   6   2    4.97    0.81
  10   7   2   68.15    2.30
  10   8   2   13.63    1.29
  10   9   2    4.98    0.83
  10  10   2   60.14    2.30
  10  11   2   82.15    2.62
  10  12   2    4.30    0.83
  10  13   2    1.78    0.75
  10  14   2   64.07    2.34
  10  15   2   61.53    2.31
  10   0   3   13.98    1.28
  10   1   3    1.33    0.70
  10   2   3   27.89    1.64
  10   3   3    9.40    0.92
  10   4   3   28.76    1.68
  10   5   3   15.21    1.16
  10   6   3  106.41    2.82
  10   7   3    4.47    0.81
  10   9   3   19.99    1.59
  10  10   3   42.50    2.07
  10  11   3    3.35    0.79
  10  12   3   40.51    1.96
  10  13   3   50.58    2.18
  10  14   3    4.65    0.83
  10  15   3    4.58    0.82
  10   0   4    5.91    0.84
  10   1   4   16.20    1.32
  10   2   4   27.26    1.64
  10   3   4   33.10    1.85
  10   4   4   28.77    1.71
  10   5   4   60.32    2.27
  10   6   4    7.22    0.88
  10   7   4   72.26    2.50
  10   8   4   40.88    2.00
  10   9   4   28.95    1.76
  10  10   4   42.30    2.05
  10  11   4   39.07    1.98
  10  12   4    2.84    0.78
  10  13   4    1.76    0.74
  10  14   4   36.62    1.91
  10   0   5   33.29    1.83
  10   1   5   60.27    2.26
  10   2   5   56.05    2.26
  10   3   5    2.36    0.77
  10   4   5   42.87    2.00
  10   5   5  105.73    2.94
  10   6   5   36.70    1.94
  10   7   5    4.07    0.83
  10   8   5   23.25    1.65
  10   9   5   76.83    2.57
  10  10   5   24.30    1.74
  10  11   5    4.00    0.82
  10  12   5   17.29    1.42
  10   0   6    0.32    0.75
  10   1   6   17.22    1.17
  10   2   6   21.65    1.69
  10   3   6    0.82    0.72
  10   4   6    3.67    0.81
  10   5   6    7.33    0.91
  10   6   6    5.87    0.86
  10   7   6   24.22    1.55
  10   8   6   11.63    0.99
  10   9   6   12.35    1.11
  10  10   6   28.94    1.75
  10   0   7    6.30    0.88
  10   1   7   10.76    0.97
  10   2   7  158.39    3.56
  10   3   7    6.82    0.88
  10   4   7   17.14    1.41
  10   5   7    8.59    0.92
  10   6   7   68.61    2.39
  10   7   7   21.73    1.67
  11   1   0    1.44    0.72
  11   2   0  342.12    5.34
  11   3   0   19.39    1.44
  11   4   0    1.22    0.72
  11   5   0    0.70    0.73
  11   6   0   36.76    1.91
  11   7   0  109.16    2.93
  11   8   0    1.66    0.75
  11   9   0    3.18    0.79
  11  10   0   19.36    1.47
  11  11   0  103.67    2.85
  11  12   0    8.32    0.92
  11  13   0   18.08    1.46
  11   0   1    0.57    0.69
  11   1   1   56.81    2.21
  11   2   1    2.95    0.78
  11   3   1   16.03    1.36
  11   4   1   15.07    1.16
  11   5   1   48.85    2.11
  11   6   1    3.05    0.79
  11   7   1   53.16    2.14
  11   8   1   28.13    1.78
  11   9   1    3.93    0.82
  11  10   1   14.88    1.19
  11  11   1    9.72    0.95
  11  12   1    1.60    0.74
  11  13   1   25.15    1.48
  11   0   2   14.05    1.29
  11   1   2   18.86    1.54
  11   2   2   27.15    1.79
  11   3   2   39.08    1.99
  11   4   2   24.14    1.63
  11   5   2    2.77    0.79
  11   6   2    3.62    0.81
  11   7   2   37.10    1.93
  11   8   2   17.56    1.40
  11   9   2    4.24    0.83
  11  10   2    5.97    0.87
  11  11   2   40.52    1.98
  11  12   2   11.17    1.08
  11   0   3   29.76    1.78
  11   1   3   36.32    1.87
  11   2   3   16.28    1.36
  11   3   3    1.13    0.73
  11   4   3   51.74    2.18
  11   5   3   35.90    1.86
  11   6   3   34.09    1.88
  11   7   3   23.52    1.70
  11   8   3   28.71    1.85
  11   9   3    5.86    0.85
  11  10   3    6.92    0.88
  11  11   3   30.47    1.87
  11   0   4   13.07    1.15
  11   1   4   27.20    1.75
  11   2   4   51.82    2.16
  11   3   4   66.22    2.39
  11   4   4   13.91    1.06
  11   5   4    6.10    0.86
  11   6   4   30.83    1.76
  11   7   4    9.50    0.96
  11   8   4    2.64    0.77
  11   9   4   20.42    1.46
  11  10   4    6.32    0.86
  11   0   5   16.79    1.24
  11   1   5   27.11    1.80
  11   2   5   65.51    2.39
  11   3   5   42.40    1.96
  11   4   5    4.52    0.82
  11   5   5    5.75    0.85
  11   6   5   90.04    2.75
  11   7   5   22.78    1.63
  11   8   5    0.49    0.74
  11   0   6   34.02    1.92
  11   1   6    8.93    0.93
  11   2   6    1.72    0.79
  11   3   6   51.97    2.15
  11   4   6   13.03    1.12
  12   0   0   16.70    1.24
  12   1   0   25.88    1.75
  12   2   0   10.00    1.07
  12   3   0   46.16    2.09
  12   4   0    4.34    0.82
  12   5   0   32.75    1.83
  12   6   0   38.07    1.92
  12   7   0   14.99    1.06
  12   8   0    1.11    0.74
  12   9   0   66.79    2.38
  12   0   1   23.01    1.65
  12   1   1    9.54    0.95
  12   2   1    7.09    0.90
  12   3   1   41.75    2.05
  12   4   1   16.47    1.28
  12   5   1   64.20    2.39
  12   6   1    0.96    0.73
  12   7   1   42.37    2.04
  12   8   1   18.76    1.58
  12   0   2    1.84    0.75
  12   1   2    9.56    0.95
  12   2   2   88.38    2.75
  12   3   2    2.84    0.78
  12   4   2   16.10    1.39
  12   5   2   14.41    1.16
  12   6   2   28.12    1.82
  12   7   2    9.11    0.93
  12   8   2    9.89    1.07
  12   0   3    1.98    1.55
  12   1   3   33.54    1.80
  12   2   3    1.53    0.75
  12   3   3   38.64    1.96
  12   4   3    3.45    0.79
  12   5   3   13.09    1.29
  12   6   3    1.66    0.74
  12   0   4   26.41    1.72
  12   1   4   81.97    2.58
  12   2   4   16.87    1.55
  12   3   4   31.88    1.84

;
_shelx_hkl_checksum   85761

